@relation dataset

@attribute ID numeric
@attribute Time date 'yyyy/MM/dd HH:mm:ss:SSS'
@attribute 'Training round' numeric
@attribute inputs-1 numeric
@attribute inputs-2 numeric
@attribute inputs-3 numeric
@attribute inputs-4 numeric
@attribute inputs-5 numeric
@attribute inputs-6 numeric
@attribute inputs-7 numeric
@attribute inputs-8 numeric
@attribute inputs-9 numeric
@attribute inputs-10 numeric
@attribute inputs-11 numeric
@attribute inputs-12 numeric
@attribute inputs-13 numeric
@attribute inputs-14 numeric
@attribute inputs-15 numeric
@attribute inputs-16 numeric
@attribute inputs-17 numeric
@attribute inputs-18 numeric
@attribute inputs-19 numeric
@attribute inputs-20 numeric
@attribute inputs-21 numeric
@attribute inputs-22 numeric
@attribute inputs-23 numeric
@attribute inputs-24 numeric
@attribute inputs-25 numeric
@attribute inputs-26 numeric
@attribute inputs-27 numeric
@attribute inputs-28 numeric
@attribute inputs-29 numeric
@attribute inputs-30 numeric
@attribute outputs-1 numeric
@attribute outputs-2 numeric
@attribute outputs-3 numeric

@data
1,'2026/05/14 11:50:15:420',1,0.760531,0.888195,0,0.56643,0.721371,-0.070344,0.700715,0.682129,-0.015145,0.66763,0.506619,-0.049526,0.739924,0.672075,-0.013203,0.741315,0.488941,-0.031703,0.776103,0.686502,-0.015819,0.773719,0.523959,-0.035374,0.810235,0.716162,-0.022047,0.836816,0.596692,-0.03328,1,0,0
2,'2026/05/14 11:50:15:453',1,0.761343,0.888204,0,0.567953,0.722928,-0.064012,0.701106,0.681353,-0.010113,0.668062,0.507063,-0.04114,0.740316,0.671164,-0.008358,0.741371,0.489471,-0.023398,0.776404,0.685845,-0.011258,0.774392,0.524069,-0.028198,0.810515,0.715185,-0.017737,0.837361,0.596013,-0.026268,1,0,0
3,'2026/05/14 11:50:15:486',1,0.761448,0.887509,0,0.566988,0.721415,-0.071217,0.700788,0.682972,-0.015846,0.667486,0.507968,-0.051196,0.740304,0.672325,-0.013754,0.74048,0.488754,-0.034008,0.776747,0.686453,-0.016145,0.773627,0.524482,-0.037854,0.810723,0.715843,-0.022073,0.836761,0.59767,-0.034762,1,0,0
4,'2026/05/14 11:50:15:540',1,0.760608,0.887731,0,0.567154,0.721884,-0.066648,0.700775,0.682043,-0.0124,0.667769,0.507523,-0.04605,0.739726,0.671765,-0.011032,0.741381,0.489625,-0.029983,0.775618,0.686215,-0.01416,0.773983,0.523445,-0.034586,0.809441,0.715954,-0.020747,0.837015,0.597348,-0.031937,1,0,0
5,'2026/05/14 11:50:15:583',1,0.760554,0.889799,0,0.566602,0.721378,-0.07079,0.700801,0.682045,-0.014932,0.667806,0.508153,-0.051096,0.740495,0.6718,-0.013444,0.740767,0.489164,-0.033989,0.776907,0.686398,-0.016518,0.774199,0.523202,-0.037914,0.810917,0.716814,-0.023188,0.836588,0.59718,-0.035746,1,0,0
6,'2026/05/14 11:50:15:632',1,0.760948,0.888662,0,0.565159,0.719955,-0.071573,0.700872,0.683972,-0.015649,0.667546,0.506222,-0.049125,0.740749,0.673012,-0.012603,0.741182,0.48877,-0.0314,0.777319,0.686381,-0.014179,0.773956,0.524037,-0.035555,0.811772,0.715091,-0.019407,0.836754,0.597717,-0.031659,1,0,0
7,'2026/05/14 11:50:15:675',1,0.76049,0.8887,0,0.566004,0.721477,-0.071863,0.700484,0.682044,-0.016199,0.667367,0.507041,-0.051827,0.739992,0.671717,-0.014201,0.741927,0.488758,-0.032781,0.776534,0.686181,-0.016764,0.774624,0.523956,-0.035589,0.810712,0.716151,-0.023018,0.836469,0.597168,-0.033352,1,0,0
8,'2026/05/14 11:50:15:704',1,0.760375,0.889526,0,0.566306,0.721302,-0.070039,0.700538,0.682346,-0.014818,0.667619,0.506779,-0.048517,0.739945,0.672302,-0.012693,0.741398,0.489242,-0.030647,0.776104,0.686854,-0.015212,0.773551,0.524619,-0.034921,0.809982,0.716512,-0.021344,0.835935,0.597232,-0.032635,1,0,0
9,'2026/05/14 11:50:15:735',1,0.760416,0.888874,0,0.565455,0.720841,-0.070813,0.700645,0.683064,-0.016175,0.66726,0.507375,-0.051181,0.739889,0.672703,-0.013885,0.740983,0.489461,-0.032204,0.776122,0.686905,-0.016148,0.773843,0.524146,-0.03561,0.810096,0.716486,-0.022077,0.836212,0.597521,-0.032999,1,0,0
10,'2026/05/14 11:50:15:766',1,0.759347,0.888157,0,0.565802,0.721122,-0.072504,0.700322,0.682846,-0.016136,0.667075,0.507526,-0.052369,0.739778,0.672105,-0.014216,0.740209,0.4888,-0.035068,0.776207,0.685919,-0.016823,0.772556,0.523472,-0.038931,0.810455,0.715332,-0.023014,0.83589,0.597092,-0.035957,1,0,0
11,'2026/05/14 11:50:15:799',1,0.760651,0.888029,0,0.565157,0.720527,-0.070967,0.700193,0.68255,-0.014791,0.66713,0.50712,-0.048669,0.73978,0.671472,-0.012257,0.74064,0.488677,-0.03004,0.776258,0.684851,-0.014372,0.773613,0.523378,-0.033982,0.810543,0.713693,-0.020187,0.835688,0.597008,-0.031267,1,0,0
12,'2026/05/14 11:50:15:826',1,0.760824,0.889043,0,0.56595,0.71994,-0.071964,0.700512,0.68233,-0.016187,0.667417,0.507123,-0.051663,0.740097,0.671839,-0.013878,0.741393,0.488848,-0.03309,0.776546,0.685665,-0.016204,0.773878,0.523164,-0.036548,0.810667,0.714984,-0.02224,0.83644,0.597131,-0.033742,1,0,0
13,'2026/05/14 11:50:15:858',1,0.760361,0.887775,0,0.566,0.720444,-0.06973,0.699645,0.681452,-0.015543,0.667558,0.505962,-0.049289,0.738933,0.671131,-0.013317,0.741032,0.487981,-0.030484,0.775257,0.685261,-0.015685,0.773563,0.52286,-0.034395,0.809401,0.714804,-0.021702,0.836164,0.595941,-0.032595,1,0,0
14,'2026/05/14 11:50:15:891',1,0.760277,0.887859,0,0.565973,0.72004,-0.069176,0.700062,0.681256,-0.013579,0.66749,0.507099,-0.047488,0.740084,0.67063,-0.01162,0.740826,0.487942,-0.030568,0.776614,0.685008,-0.014279,0.773898,0.521937,-0.035445,0.810777,0.714946,-0.020557,0.836698,0.59619,-0.033176,1,0,0
15,'2026/05/14 11:50:15:919',1,0.75954,0.889241,0,0.564961,0.719835,-0.072814,0.70032,0.682134,-0.015274,0.667113,0.506868,-0.051288,0.740025,0.67125,-0.013381,0.739649,0.487047,-0.034409,0.776579,0.685381,-0.016117,0.772944,0.521145,-0.038965,0.811012,0.715258,-0.022447,0.836394,0.596514,-0.036402,1,0,0
16,'2026/05/14 11:50:15:952',1,0.760087,0.888723,0,0.565125,0.720563,-0.069616,0.699875,0.681993,-0.014553,0.666837,0.505938,-0.048109,0.739421,0.671395,-0.012099,0.740755,0.488258,-0.029152,0.775704,0.68554,-0.014273,0.772972,0.522793,-0.032682,0.809748,0.714844,-0.02015,0.83528,0.596534,-0.030254,1,0,0
17,'2026/05/14 11:50:15:992',1,0.759765,0.888964,0,0.564958,0.719969,-0.072566,0.700064,0.68248,-0.015753,0.66743,0.507336,-0.05178,0.739657,0.671651,-0.013883,0.739938,0.487742,-0.034485,0.776197,0.685349,-0.016613,0.772888,0.521792,-0.038707,0.810726,0.714969,-0.02297,0.835729,0.596348,-0.036178,1,0,0
18,'2026/05/14 11:50:16:031',1,0.759572,0.890196,0,0.563798,0.718574,-0.074318,0.699713,0.683319,-0.01677,0.667387,0.506408,-0.053888,0.739736,0.672143,-0.014786,0.73984,0.487203,-0.037611,0.77653,0.685422,-0.017385,0.773064,0.520717,-0.041798,0.811035,0.714787,-0.023596,0.836179,0.596409,-0.038498,1,0,0
19,'2026/05/14 11:50:16:064',1,0.759678,0.888995,0,0.565162,0.72076,-0.070033,0.700349,0.681999,-0.014345,0.667121,0.507752,-0.049249,0.74003,0.670806,-0.012561,0.739807,0.488773,-0.032404,0.776636,0.684822,-0.01527,0.772957,0.521272,-0.037111,0.811091,0.714827,-0.021518,0.835839,0.597135,-0.034452,1,0,0
20,'2026/05/14 11:50:16:091',1,0.760216,0.890184,0,0.564782,0.720402,-0.071708,0.700596,0.683749,-0.014794,0.667717,0.507539,-0.050102,0.740053,0.673274,-0.013087,0.740686,0.488331,-0.034175,0.776541,0.686995,-0.016008,0.773077,0.522983,-0.038998,0.811191,0.716467,-0.022517,0.836438,0.596558,-0.03597,1,0,0
21,'2026/05/14 11:50:16:126',1,0.760338,0.889469,0,0.565074,0.720718,-0.072118,0.700595,0.683374,-0.015598,0.668795,0.507253,-0.051427,0.740421,0.67225,-0.0139,0.740484,0.48748,-0.036397,0.777011,0.685737,-0.01665,0.773787,0.521342,-0.041167,0.811422,0.715283,-0.022858,0.83701,0.59665,-0.037597,1,0,0
22,'2026/05/14 11:50:16:154',1,0.760736,0.8892,0,0.566805,0.72138,-0.070278,0.701186,0.683221,-0.014647,0.669017,0.507567,-0.048846,0.740882,0.672423,-0.012888,0.740596,0.488412,-0.033332,0.777316,0.686541,-0.01556,0.773858,0.521381,-0.038198,0.811729,0.716511,-0.02171,0.837206,0.597645,-0.035352,1,0,0
23,'2026/05/14 11:50:16:188',1,0.76022,0.889938,0,0.565582,0.721526,-0.070478,0.700609,0.682377,-0.015077,0.668526,0.506825,-0.050291,0.740088,0.672409,-0.013204,0.742167,0.48896,-0.032174,0.776451,0.687217,-0.0159,0.775208,0.523407,-0.035569,0.810547,0.717355,-0.022247,0.83689,0.596969,-0.033182,1,0,0
24,'2026/05/14 11:50:16:218',1,0.759902,0.889396,0,0.566417,0.721531,-0.069947,0.70085,0.682941,-0.014766,0.668205,0.506222,-0.04959,0.740167,0.672674,-0.012537,0.742051,0.488983,-0.03121,0.776473,0.687094,-0.01493,0.774824,0.523365,-0.034448,0.810595,0.716799,-0.020987,0.83642,0.596535,-0.031758,1,0,0
25,'2026/05/14 11:50:16:256',1,0.760972,0.889938,0,0.566204,0.722381,-0.070406,0.701008,0.682061,-0.014711,0.668346,0.507407,-0.04979,0.740696,0.67168,-0.012948,0.741114,0.488809,-0.032288,0.777094,0.686315,-0.015712,0.774801,0.522981,-0.03613,0.811173,0.716458,-0.022085,0.837034,0.596754,-0.03376,1,0,0
26,'2026/05/14 11:50:16:302',1,0.760139,0.890887,0,0.566005,0.720836,-0.069338,0.70078,0.682583,-0.013721,0.668589,0.506378,-0.04814,0.740303,0.67227,-0.012022,0.741266,0.488381,-0.031088,0.776634,0.686765,-0.014941,0.774358,0.521957,-0.035305,0.81074,0.7165,-0.02152,0.836901,0.597101,-0.033351,1,0,0
27,'2026/05/14 11:50:16:328',1,0.760474,0.888377,0,0.566563,0.721357,-0.071689,0.700541,0.682331,-0.015616,0.668518,0.507292,-0.050992,0.740548,0.671991,-0.014037,0.740885,0.487956,-0.03594,0.777146,0.686311,-0.016896,0.774101,0.522079,-0.040987,0.811531,0.716344,-0.023218,0.837231,0.596422,-0.038024,1,0,0
28,'2026/05/14 11:50:16:357',1,0.759958,0.891,0,0.564805,0.719975,-0.071399,0.700815,0.682344,-0.014909,0.66782,0.506683,-0.050297,0.740511,0.671604,-0.013014,0.741176,0.487943,-0.032596,0.776992,0.685766,-0.015797,0.773465,0.522388,-0.037296,0.811318,0.715753,-0.022223,0.836409,0.596593,-0.035416,1,0,0
29,'2026/05/14 11:50:16:390',1,0.760477,0.889929,0,0.565949,0.721203,-0.071602,0.700653,0.682402,-0.016272,0.667956,0.505754,-0.050889,0.740004,0.672221,-0.013875,0.741537,0.488635,-0.031728,0.776348,0.686648,-0.016121,0.774493,0.523293,-0.035143,0.810474,0.716455,-0.02209,0.836224,0.596728,-0.033123,1,0,0
30,'2026/05/14 11:50:16:425',1,0.759611,0.889693,0,0.565081,0.719443,-0.071426,0.700935,0.682749,-0.014735,0.668621,0.507014,-0.04966,0.740365,0.672179,-0.012744,0.741135,0.487737,-0.032406,0.776616,0.686163,-0.015448,0.773512,0.522212,-0.037389,0.810828,0.715803,-0.02179,0.836304,0.596507,-0.035051,1,0,0
31,'2026/05/14 11:50:16:452',1,0.760426,0.88881,0,0.566319,0.72085,-0.069873,0.701089,0.681839,-0.013906,0.668194,0.506983,-0.048835,0.740684,0.671282,-0.011994,0.741001,0.488791,-0.030599,0.777057,0.68587,-0.014745,0.77406,0.521838,-0.03499,0.811126,0.715947,-0.021135,0.836604,0.596366,-0.033121,1,0,0
32,'2026/05/14 11:50:16:483',1,0.760539,0.888974,0,0.56567,0.720039,-0.070738,0.701234,0.682776,-0.014092,0.668505,0.507463,-0.049209,0.740853,0.671936,-0.012234,0.741044,0.487544,-0.032892,0.777262,0.685881,-0.014946,0.773798,0.521837,-0.03763,0.811697,0.715569,-0.021184,0.836528,0.596527,-0.034377,1,0,0
33,'2026/05/14 11:50:16:514',1,0.759639,0.889723,0,0.566313,0.720685,-0.070908,0.701125,0.681695,-0.015375,0.668686,0.505866,-0.05032,0.740676,0.671338,-0.013328,0.741893,0.488322,-0.032089,0.77692,0.685822,-0.01585,0.774623,0.522485,-0.035434,0.810993,0.71588,-0.022036,0.836312,0.596616,-0.032876,1,0,0
34,'2026/05/14 11:50:16:552',1,0.76089,0.889161,0,0.567209,0.720189,-0.071066,0.701675,0.682981,-0.015447,0.669315,0.507147,-0.050616,0.74124,0.6717,-0.013556,0.741299,0.488433,-0.034479,0.777712,0.6854,-0.016107,0.774001,0.520819,-0.038999,0.812209,0.715327,-0.02219,0.8371,0.597633,-0.036208,1,0,0
35,'2026/05/14 11:50:16:577',1,0.760078,0.889,0,0.567424,0.720699,-0.070645,0.701516,0.682472,-0.015602,0.669098,0.507076,-0.050594,0.740997,0.672098,-0.01331,0.742482,0.489456,-0.031336,0.777204,0.686428,-0.015583,0.775534,0.522899,-0.034031,0.811052,0.716295,-0.021583,0.836668,0.596532,-0.031893,1,0,0
36,'2026/05/14 11:50:16:608',1,0.76039,0.889675,0,0.567456,0.721243,-0.067407,0.70096,0.68185,-0.01299,0.668561,0.507704,-0.046098,0.740549,0.671224,-0.011014,0.742156,0.490356,-0.028207,0.77678,0.685992,-0.013632,0.774637,0.522718,-0.032909,0.81063,0.716262,-0.019835,0.836444,0.597417,-0.031193,1,0,0
37,'2026/05/14 11:50:16:640',1,0.760411,0.88904,0,0.567446,0.720815,-0.071917,0.701382,0.682987,-0.016625,0.669267,0.507403,-0.053198,0.740647,0.672848,-0.014818,0.741806,0.489376,-0.035264,0.776891,0.687329,-0.017509,0.77482,0.522339,-0.03846,0.810866,0.717405,-0.023838,0.83672,0.597144,-0.036583,1,0,0
38,'2026/05/14 11:50:16:674',1,0.760702,0.889436,0,0.567961,0.721143,-0.067341,0.701743,0.681296,-0.01303,0.668627,0.506255,-0.044752,0.741306,0.670725,-0.011,0.741817,0.489941,-0.027639,0.777463,0.685424,-0.013473,0.774227,0.521216,-0.033093,0.81133,0.715353,-0.019493,0.836189,0.597922,-0.031074,1,0,0
39,'2026/05/14 11:50:16:703',1,0.760088,0.888691,0,0.56801,0.721779,-0.069507,0.701276,0.681607,-0.014247,0.668112,0.506954,-0.049328,0.740804,0.671578,-0.013085,0.741601,0.489623,-0.033377,0.776854,0.686871,-0.016352,0.774469,0.521391,-0.038184,0.81043,0.717897,-0.023073,0.83642,0.598216,-0.035891,1,0,0
40,'2026/05/14 11:50:16:745',1,0.761056,0.889115,0,0.566947,0.720466,-0.072126,0.701104,0.683118,-0.015806,0.668941,0.507254,-0.051167,0.740845,0.672225,-0.013403,0.741249,0.488294,-0.033115,0.777483,0.685845,-0.015637,0.774017,0.523241,-0.03715,0.812032,0.715033,-0.021551,0.836278,0.596771,-0.034322,1,0,0
41,'2026/05/14 11:50:16:786',1,0.760401,0.889309,0,0.565717,0.719702,-0.071265,0.701125,0.682796,-0.015468,0.668567,0.506494,-0.050529,0.740564,0.671994,-0.013307,0.741569,0.488266,-0.032325,0.776824,0.685617,-0.015722,0.774518,0.524187,-0.036036,0.810811,0.714819,-0.021765,0.836065,0.596779,-0.033324,1,0,0
42,'2026/05/14 11:50:16:815',1,0.760804,0.889321,0,0.566538,0.718941,-0.072641,0.701171,0.682943,-0.016059,0.669232,0.506734,-0.052187,0.740784,0.6723,-0.013963,0.740765,0.48753,-0.034867,0.77727,0.686088,-0.016455,0.774137,0.522044,-0.038865,0.811533,0.715517,-0.022572,0.836256,0.596976,-0.036023,1,0,0
43,'2026/05/14 11:50:16:844',1,0.760329,0.889916,0,0.566289,0.719013,-0.070998,0.701389,0.681753,-0.015009,0.668648,0.506174,-0.049413,0.741105,0.671545,-0.012794,0.741987,0.488458,-0.031608,0.777433,0.685955,-0.015237,0.774828,0.522835,-0.035857,0.81159,0.715716,-0.021355,0.836088,0.596043,-0.033574,1,0,0
44,'2026/05/14 11:50:16:875',1,0.759543,0.888638,0,0.567985,0.721668,-0.069226,0.701466,0.681273,-0.014353,0.669298,0.505654,-0.049369,0.74045,0.671321,-0.012763,0.742496,0.488988,-0.031345,0.776535,0.686483,-0.01568,0.775186,0.522412,-0.034371,0.81065,0.717299,-0.022189,0.836677,0.596413,-0.032339,1,0,0
45,'2026/05/14 11:50:16:909',1,0.761722,0.888613,0,0.567339,0.719965,-0.068336,0.700637,0.681991,-0.014072,0.668938,0.505332,-0.046726,0.74021,0.671952,-0.011636,0.74241,0.488321,-0.027969,0.776379,0.68666,-0.013866,0.774726,0.523547,-0.032225,0.810403,0.716411,-0.019746,0.83664,0.596283,-0.029964,1,0,0
46,'2026/05/14 11:50:16:941',1,0.760983,0.889569,0,0.566804,0.719942,-0.072471,0.701619,0.68189,-0.016446,0.669674,0.506763,-0.05234,0.741254,0.671448,-0.014502,0.741639,0.487963,-0.035597,0.777694,0.685591,-0.017085,0.774841,0.522451,-0.040051,0.812068,0.715524,-0.023258,0.836455,0.596526,-0.037083,1,0,0
47,'2026/05/14 11:50:16:970',1,0.760015,0.891036,0,0.566137,0.719053,-0.071366,0.701641,0.68174,-0.014922,0.669705,0.506077,-0.050358,0.741528,0.671413,-0.013336,0.741315,0.487589,-0.034661,0.777954,0.686089,-0.01622,0.775125,0.521245,-0.039252,0.812088,0.716887,-0.022625,0.837251,0.596851,-0.036771,1,0,0
48,'2026/05/14 11:50:17:001',1,0.760498,0.890521,0,0.566716,0.720157,-0.071375,0.701644,0.681682,-0.01524,0.669558,0.505763,-0.049881,0.741439,0.671473,-0.012976,0.742857,0.488098,-0.032038,0.77778,0.686084,-0.015294,0.775714,0.522321,-0.035999,0.81185,0.716136,-0.021264,0.837335,0.596998,-0.033177,1,0,0
49,'2026/05/14 11:50:17:032',1,0.760774,0.889634,0,0.56696,0.719223,-0.071994,0.701771,0.682027,-0.016015,0.669742,0.505422,-0.050863,0.741514,0.672349,-0.013689,0.744137,0.488689,-0.032301,0.777786,0.68683,-0.016032,0.776513,0.523515,-0.03607,0.811841,0.716441,-0.022086,0.837807,0.596545,-0.033621,1,0,0
50,'2026/05/14 11:50:17:063',1,0.761111,0.888929,0,0.567462,0.719635,-0.070903,0.702238,0.681976,-0.015528,0.66999,0.506329,-0.050115,0.741838,0.671823,-0.013247,0.743603,0.488601,-0.03192,0.778164,0.686444,-0.015524,0.776274,0.523051,-0.036214,0.812187,0.716577,-0.021392,0.83796,0.596832,-0.033431,1,0,0
51,'2026/05/14 11:50:17:095',1,0.760916,0.889063,0,0.567823,0.719147,-0.070241,0.701973,0.681484,-0.014783,0.670312,0.50566,-0.048993,0.741718,0.671501,-0.012653,0.743782,0.488544,-0.030768,0.778038,0.686543,-0.015118,0.776134,0.522525,-0.034374,0.811969,0.717,-0.021242,0.837617,0.596607,-0.032408,1,0,0
52,'2026/05/14 11:50:17:124',1,0.760615,0.889938,0,0.567643,0.718481,-0.070439,0.702553,0.681669,-0.0149,0.670923,0.50585,-0.049627,0.741981,0.671128,-0.01301,0.742999,0.487479,-0.032139,0.778327,0.685393,-0.015684,0.775744,0.522514,-0.036701,0.812591,0.715401,-0.021973,0.837546,0.597103,-0.034373,1,0,0
53,'2026/05/14 11:50:17:158',1,0.760558,0.888933,0,0.567328,0.718654,-0.070451,0.702109,0.680201,-0.014571,0.669488,0.504649,-0.049826,0.74173,0.670409,-0.012934,0.743369,0.488365,-0.032088,0.778015,0.685427,-0.015848,0.775796,0.521603,-0.035703,0.811929,0.716034,-0.022371,0.837503,0.596549,-0.033597,1,0,0
54,'2026/05/14 11:50:17:197',1,0.760797,0.887788,0,0.569207,0.71941,-0.068925,0.70231,0.680497,-0.014258,0.670399,0.504196,-0.047706,0.741489,0.670958,-0.011899,0.744442,0.487894,-0.029002,0.777321,0.685977,-0.014211,0.776544,0.523434,-0.031998,0.811203,0.716173,-0.020234,0.837461,0.596006,-0.02957,1,0,0
55,'2026/05/14 11:50:17:233',1,0.760593,0.888032,0,0.568492,0.717425,-0.070301,0.702876,0.680462,-0.014904,0.670013,0.504659,-0.04958,0.74232,0.670607,-0.012902,0.743547,0.487336,-0.032112,0.778246,0.685183,-0.015421,0.776095,0.522398,-0.03547,0.812186,0.715235,-0.021574,0.837235,0.594514,-0.032901,1,0,0
56,'2026/05/14 11:50:17:265',1,0.761257,0.88803,0,0.567491,0.71815,-0.07019,0.702549,0.680061,-0.01379,0.669909,0.504687,-0.048205,0.74211,0.669785,-0.011568,0.743614,0.486981,-0.030251,0.778231,0.68423,-0.014052,0.77586,0.521476,-0.034528,0.812328,0.714146,-0.020197,0.837556,0.594535,-0.032484,1,0,0
57,'2026/05/14 11:50:17:294',1,0.761257,0.887769,0,0.567215,0.717684,-0.072341,0.702647,0.680654,-0.015644,0.670272,0.504319,-0.051233,0.742173,0.670826,-0.013659,0.743558,0.486706,-0.034105,0.778235,0.685367,-0.016252,0.77581,0.521952,-0.037929,0.812297,0.715429,-0.022472,0.837458,0.594584,-0.035241,1,0,0
58,'2026/05/14 11:50:17:328',1,0.761587,0.887316,0,0.56785,0.717736,-0.070707,0.70328,0.680158,-0.014382,0.670119,0.504844,-0.049761,0.742436,0.66965,-0.012374,0.743192,0.486544,-0.031766,0.778306,0.683641,-0.015019,0.775531,0.521083,-0.035684,0.812434,0.713305,-0.021326,0.837156,0.593681,-0.033283,1,0,0
59,'2026/05/14 11:50:17:358',1,0.761673,0.887038,0,0.568112,0.718068,-0.069766,0.702392,0.680109,-0.014121,0.670168,0.504074,-0.048137,0.742027,0.670383,-0.011982,0.74328,0.487267,-0.029996,0.778074,0.685602,-0.014451,0.77658,0.521537,-0.033187,0.811745,0.71616,-0.020582,0.836872,0.594544,-0.031218,1,0,0
60,'2026/05/14 11:50:17:391',1,0.76142,0.88732,0,0.568486,0.718409,-0.069572,0.702718,0.679963,-0.013535,0.669952,0.504534,-0.049026,0.741859,0.66969,-0.01208,0.743666,0.486941,-0.03224,0.777769,0.684169,-0.015237,0.775861,0.520895,-0.036082,0.811913,0.714386,-0.022004,0.836576,0.593869,-0.03393,1,0,0
61,'2026/05/14 11:50:17:420',1,0.761611,0.887329,0,0.567961,0.717673,-0.069815,0.702788,0.679596,-0.014151,0.669885,0.505412,-0.049109,0.742492,0.669267,-0.012401,0.743014,0.48723,-0.031796,0.778744,0.684044,-0.015189,0.776112,0.520619,-0.035582,0.812769,0.714633,-0.021572,0.83621,0.59405,-0.033255,1,0,0
62,'2026/05/14 11:50:17:456',1,0.761695,0.886927,0,0.568398,0.717541,-0.069228,0.702912,0.679672,-0.013947,0.670247,0.504771,-0.047858,0.742531,0.669315,-0.012071,0.743245,0.486864,-0.03083,0.778625,0.683899,-0.014678,0.776198,0.520483,-0.035029,0.812526,0.713945,-0.020833,0.836935,0.593846,-0.03278,1,0,0
63,'2026/05/14 11:50:17:486',1,0.761978,0.887413,0,0.568145,0.717156,-0.067809,0.703031,0.68021,-0.012623,0.67068,0.50464,-0.045276,0.742537,0.669824,-0.010363,0.743602,0.487637,-0.027141,0.778619,0.684242,-0.012798,0.775961,0.521141,-0.031207,0.812764,0.713894,-0.018944,0.835894,0.593858,-0.029546,1,0,0
64,'2026/05/14 11:50:17:518',1,0.762032,0.887724,0,0.567698,0.717837,-0.069077,0.702662,0.680089,-0.013633,0.670772,0.504412,-0.047507,0.742103,0.669978,-0.011655,0.743825,0.487128,-0.02974,0.778071,0.684345,-0.014297,0.776256,0.521693,-0.033909,0.811963,0.714091,-0.020566,0.836116,0.594029,-0.031725,1,0,0
65,'2026/05/14 11:50:17:549',1,0.761545,0.887626,0,0.568527,0.716808,-0.072296,0.703147,0.680686,-0.01516,0.671247,0.50503,-0.051305,0.742715,0.670345,-0.013336,0.742925,0.486419,-0.03492,0.778939,0.684336,-0.016119,0.776152,0.52052,-0.038683,0.812937,0.714086,-0.022532,0.836748,0.594933,-0.035907,1,0,0
66,'2026/05/14 11:50:17:582',1,0.761454,0.886311,0,0.568817,0.717305,-0.06946,0.703175,0.67951,-0.014386,0.670687,0.504082,-0.048504,0.742517,0.669788,-0.012625,0.744832,0.486716,-0.032679,0.778165,0.684505,-0.015349,0.776943,0.520985,-0.036643,0.811912,0.714747,-0.021611,0.837394,0.593944,-0.033709,1,0,0
67,'2026/05/14 11:50:17:613',1,0.762404,0.887475,0,0.568631,0.716968,-0.071269,0.703124,0.680023,-0.015734,0.670745,0.504221,-0.051914,0.742653,0.669844,-0.014121,0.744532,0.486467,-0.034697,0.778669,0.684096,-0.017008,0.777216,0.522094,-0.037776,0.812261,0.714048,-0.023492,0.836908,0.59456,-0.034793,1,0,0
68,'2026/05/14 11:50:17:647',1,0.762967,0.886671,0,0.569093,0.716596,-0.070432,0.703181,0.67982,-0.015017,0.670962,0.50409,-0.049111,0.742944,0.66975,-0.012689,0.744178,0.487777,-0.030463,0.779025,0.68427,-0.015012,0.777,0.522755,-0.033794,0.812808,0.714202,-0.02103,0.836726,0.594557,-0.031771,1,0,0
69,'2026/05/14 11:50:17:681',1,0.761651,0.887046,0,0.56914,0.715974,-0.071819,0.703649,0.681077,-0.015348,0.671831,0.505759,-0.050492,0.743167,0.670789,-0.012976,0.744569,0.487877,-0.032022,0.779195,0.684617,-0.015244,0.777551,0.523378,-0.034768,0.812928,0.713941,-0.021243,0.836485,0.595335,-0.031668,1,0,0
70,'2026/05/14 11:50:17:719',1,0.761853,0.888132,0,0.569808,0.717908,-0.06961,0.703945,0.679664,-0.013937,0.672029,0.504724,-0.048975,0.7432,0.669847,-0.012278,0.745,0.487761,-0.031955,0.778907,0.684748,-0.015221,0.777188,0.521729,-0.034999,0.812707,0.715351,-0.021811,0.836043,0.594005,-0.032442,1,0,0
71,'2026/05/14 11:50:17:751',1,0.761788,0.888462,0,0.567607,0.71681,-0.071432,0.703012,0.681437,-0.015209,0.671421,0.504787,-0.050781,0.742504,0.671456,-0.013406,0.744718,0.48711,-0.034007,0.778485,0.685431,-0.016174,0.777314,0.523067,-0.037435,0.812495,0.715148,-0.022563,0.836409,0.595376,-0.034224,1,0,0
72,'2026/05/14 11:50:17:784',1,0.76203,0.887452,0,0.568789,0.719274,-0.068109,0.703025,0.679505,-0.013272,0.671296,0.504598,-0.046694,0.742308,0.669957,-0.011072,0.744318,0.488177,-0.028062,0.7781,0.685148,-0.013482,0.776791,0.522301,-0.031087,0.811768,0.715283,-0.019551,0.836193,0.594562,-0.028966,1,0,0
73,'2026/05/14 11:50:17:813',1,0.761422,0.888817,0,0.567644,0.718322,-0.073566,0.703462,0.681208,-0.016213,0.671713,0.505839,-0.05301,0.742758,0.67094,-0.014622,0.742787,0.486753,-0.036781,0.778924,0.685158,-0.017504,0.776304,0.520743,-0.040876,0.812937,0.714997,-0.023925,0.836857,0.595003,-0.037882,1,0,0
74,'2026/05/14 11:50:17:852',1,0.762193,0.8885,0,0.56907,0.719112,-0.069963,0.703469,0.681101,-0.014098,0.671595,0.506368,-0.050197,0.74295,0.67087,-0.012944,0.743031,0.487059,-0.034975,0.778936,0.685289,-0.016276,0.776635,0.521572,-0.03925,0.812712,0.715639,-0.023117,0.836773,0.594635,-0.036453,1,0,0
75,'2026/05/14 11:50:17:891',1,0.762374,0.887285,0,0.568599,0.718935,-0.069453,0.703597,0.680329,-0.014326,0.671018,0.504966,-0.048495,0.742867,0.670537,-0.012515,0.744734,0.487656,-0.031696,0.778561,0.685033,-0.015199,0.776762,0.522602,-0.035353,0.812269,0.715,-0.021449,0.836287,0.594285,-0.032268,1,0,0
76,'2026/05/14 11:50:17:924',1,0.762393,0.88906,0,0.568974,0.71848,-0.070779,0.703722,0.680916,-0.0147,0.670804,0.505031,-0.049716,0.743132,0.670748,-0.012795,0.744248,0.487469,-0.032564,0.779155,0.685056,-0.015417,0.777411,0.522082,-0.035691,0.813198,0.715037,-0.021678,0.837219,0.594799,-0.032774,1,0,0
77,'2026/05/14 11:50:17:954',1,0.761707,0.887957,0,0.569529,0.718684,-0.069733,0.704013,0.679815,-0.014222,0.67171,0.504334,-0.048459,0.743295,0.670092,-0.012139,0.745074,0.487569,-0.030403,0.779026,0.684865,-0.01465,0.777313,0.521841,-0.033519,0.812774,0.714842,-0.020835,0.837375,0.594754,-0.030982,1,0,0
78,'2026/05/14 11:50:17:984',1,0.761772,0.889311,0,0.568662,0.716703,-0.072617,0.703561,0.681,-0.015825,0.672015,0.505518,-0.052753,0.742939,0.670991,-0.014092,0.744687,0.487267,-0.035424,0.779097,0.685303,-0.01695,0.777402,0.521605,-0.038964,0.813137,0.715459,-0.023434,0.836705,0.594451,-0.03613,1,0,0
79,'2026/05/14 11:50:18:014',1,0.761034,0.886776,0,0.569531,0.717399,-0.070174,0.703153,0.679654,-0.014422,0.671307,0.504488,-0.050053,0.742566,0.669958,-0.012872,0.744743,0.487274,-0.032913,0.778402,0.684488,-0.015839,0.777119,0.521947,-0.036024,0.812303,0.71466,-0.022402,0.836637,0.593776,-0.03308,1,0,0
80,'2026/05/14 11:50:18:052',1,0.762174,0.885688,0,0.568167,0.717082,-0.069811,0.702859,0.680543,-0.013987,0.671321,0.504282,-0.048818,0.742322,0.670803,-0.011849,0.744083,0.486818,-0.031907,0.778339,0.684964,-0.014287,0.776426,0.523167,-0.035303,0.81228,0.714282,-0.020291,0.83624,0.594927,-0.03119,1,0,0
81,'2026/05/14 11:50:18:079',1,0.761438,0.885921,0,0.568074,0.716437,-0.072667,0.702928,0.680754,-0.015804,0.671506,0.505983,-0.052238,0.742375,0.670425,-0.013819,0.744268,0.487419,-0.034801,0.778363,0.684193,-0.0164,0.776916,0.522699,-0.038015,0.812042,0.713467,-0.022617,0.836005,0.594322,-0.034894,1,0,0
82,'2026/05/14 11:50:18:110',1,0.761818,0.887823,0,0.56928,0.718246,-0.067787,0.703571,0.679437,-0.012945,0.671236,0.504219,-0.0463,0.742716,0.669728,-0.01115,0.744292,0.487535,-0.029562,0.778158,0.684591,-0.013992,0.775796,0.522373,-0.03393,0.811614,0.714644,-0.020421,0.835666,0.594307,-0.032088,1,0,0
83,'2026/05/14 11:50:18:141',1,0.761615,0.887603,0,0.569068,0.717445,-0.068394,0.702869,0.680442,-0.013239,0.671264,0.505258,-0.047519,0.742347,0.670561,-0.011821,0.743691,0.488037,-0.032044,0.778308,0.685209,-0.014919,0.776122,0.521211,-0.036494,0.812285,0.715245,-0.021528,0.835574,0.594028,-0.033954,1,0,0
84,'2026/05/14 11:50:18:174',1,0.761352,0.887366,0,0.567809,0.717499,-0.070339,0.702528,0.681089,-0.015098,0.671003,0.504931,-0.049172,0.741777,0.671253,-0.012895,0.743651,0.487997,-0.031328,0.777679,0.685647,-0.015268,0.776145,0.522978,-0.034812,0.811462,0.715431,-0.021289,0.835676,0.594811,-0.032361,1,0,0
85,'2026/05/14 11:50:18:205',1,0.761284,0.887694,0,0.568266,0.718115,-0.069463,0.702946,0.680044,-0.013522,0.671144,0.504791,-0.046582,0.742329,0.67035,-0.011374,0.744071,0.488143,-0.02965,0.778093,0.684912,-0.013864,0.776388,0.523233,-0.033808,0.811951,0.714636,-0.019969,0.8359,0.594907,-0.030914,1,0,0
86,'2026/05/14 11:50:18:257',1,0.761205,0.886791,0,0.569071,0.71968,-0.070692,0.7028,0.680628,-0.01528,0.671641,0.505267,-0.050555,0.741965,0.670877,-0.013241,0.744936,0.488647,-0.032435,0.777873,0.685646,-0.015751,0.776977,0.523223,-0.03487,0.811677,0.715773,-0.021919,0.835908,0.594928,-0.032076,1,0,0
87,'2026/05/14 11:50:18:300',1,0.76108,0.88707,0,0.56854,0.719598,-0.069693,0.70285,0.680695,-0.014786,0.671364,0.50525,-0.049371,0.742014,0.670836,-0.012861,0.744201,0.488679,-0.03194,0.77773,0.685394,-0.015437,0.776456,0.522866,-0.0349,0.811577,0.715474,-0.021637,0.835659,0.594596,-0.032344,1,0,0
88,'2026/05/14 11:50:18:326',1,0.761428,0.888576,0,0.568679,0.719643,-0.069071,0.703718,0.681449,-0.013758,0.670975,0.506537,-0.046833,0.743024,0.671507,-0.012098,0.74373,0.489666,-0.031402,0.77871,0.686565,-0.014896,0.775655,0.52157,-0.03615,0.812323,0.716967,-0.021198,0.836046,0.595744,-0.034146,1,0,0
89,'2026/05/14 11:50:18:369',1,0.761904,0.889056,0,0.568232,0.720937,-0.072185,0.703369,0.682356,-0.015871,0.671801,0.506799,-0.051671,0.742595,0.672492,-0.014296,0.743706,0.488766,-0.035757,0.778405,0.686921,-0.017182,0.776265,0.521843,-0.03932,0.812073,0.716782,-0.023666,0.835768,0.595015,-0.036533,1,0,0
90,'2026/05/14 11:50:18:406',1,0.761474,0.888669,0,0.567453,0.719444,-0.073565,0.703143,0.682304,-0.017217,0.671418,0.506423,-0.053724,0.742466,0.67259,-0.01517,0.74435,0.489343,-0.036581,0.778296,0.686675,-0.017668,0.777068,0.524013,-0.03917,0.811876,0.715964,-0.023821,0.836024,0.594164,-0.036029,1,0,0
91,'2026/05/14 11:50:18:435',1,0.762693,0.888596,0,0.568939,0.721564,-0.072376,0.704229,0.682568,-0.015395,0.673386,0.50835,-0.051224,0.743259,0.672162,-0.013662,0.74416,0.489196,-0.035207,0.779074,0.686343,-0.016435,0.777266,0.522368,-0.039338,0.812821,0.716133,-0.022765,0.836689,0.595496,-0.036608,1,0,0
92,'2026/05/14 11:50:18:473',1,0.762898,0.890972,0,0.570117,0.720671,-0.067889,0.704453,0.682255,-0.01377,0.672973,0.506479,-0.047358,0.743618,0.672392,-0.012079,0.745827,0.490368,-0.030131,0.779325,0.687181,-0.014891,0.777888,0.522181,-0.034094,0.81304,0.7173,-0.021292,0.836654,0.594884,-0.032297,1,0,0
93,'2026/05/14 11:50:18:523',1,0.762443,0.891052,0,0.569584,0.720154,-0.071695,0.70464,0.681513,-0.015959,0.67326,0.505612,-0.051472,0.743934,0.67203,-0.014189,0.745942,0.489121,-0.03374,0.779675,0.68686,-0.016945,0.7783,0.523276,-0.036644,0.81322,0.717046,-0.023353,0.837436,0.594736,-0.034348,1,0,0
94,'2026/05/14 11:50:18:562',1,0.762612,0.889135,0,0.57063,0.720564,-0.06948,0.705452,0.681956,-0.014272,0.67358,0.506224,-0.049345,0.744386,0.672088,-0.012508,0.746642,0.489244,-0.032242,0.779691,0.686723,-0.015227,0.778728,0.523674,-0.034541,0.813208,0.716852,-0.021577,0.83735,0.594278,-0.031752,1,0,0
95,'2026/05/14 11:50:18:604',1,0.762751,0.889001,0,0.571343,0.721597,-0.069976,0.704813,0.681069,-0.014864,0.67366,0.506327,-0.049813,0.743915,0.671723,-0.013304,0.746559,0.488918,-0.032932,0.779676,0.68676,-0.016181,0.778912,0.524328,-0.035216,0.813387,0.717392,-0.022648,0.837472,0.595491,-0.031988,1,0,0
96,'2026/05/14 11:50:18:644',1,0.762627,0.890842,0,0.570674,0.720622,-0.067062,0.70522,0.681476,-0.012451,0.674144,0.506102,-0.045599,0.744401,0.672134,-0.010992,0.746077,0.489826,-0.029213,0.780068,0.687383,-0.014079,0.778366,0.522785,-0.033587,0.813771,0.717746,-0.020702,0.838005,0.595221,-0.03189,1,0,0
97,'2026/05/14 11:50:18:673',1,0.763883,0.88862,0,0.570971,0.719766,-0.067959,0.705554,0.681302,-0.013448,0.674618,0.506337,-0.046523,0.744668,0.672036,-0.011651,0.745692,0.490181,-0.030656,0.780258,0.687252,-0.014292,0.778718,0.522904,-0.034825,0.813969,0.717759,-0.020424,0.837722,0.596017,-0.032425,1,0,0
98,'2026/05/14 11:50:18:700',1,0.762586,0.891243,0,0.571328,0.722161,-0.069384,0.706017,0.681959,-0.013635,0.673528,0.506781,-0.048189,0.745084,0.67255,-0.012328,0.746171,0.490201,-0.031602,0.780833,0.687733,-0.01547,0.779065,0.523455,-0.034309,0.814542,0.718376,-0.022166,0.837417,0.596023,-0.031436,1,0,0
99,'2026/05/14 11:50:18:735',1,0.764181,0.890617,0,0.571483,0.721064,-0.068986,0.705845,0.681857,-0.014355,0.674409,0.506547,-0.047982,0.744985,0.672713,-0.012386,0.747767,0.488414,-0.030745,0.78057,0.687698,-0.014861,0.779851,0.525458,-0.032993,0.814094,0.717623,-0.020921,0.838479,0.595854,-0.02905,1,0,0
100,'2026/05/14 11:50:18:765',1,0.764154,0.890733,0,0.571885,0.723232,-0.067867,0.705853,0.683425,-0.014194,0.674242,0.507199,-0.04769,0.744778,0.673933,-0.012425,0.747463,0.489729,-0.031302,0.780338,0.688887,-0.015066,0.780148,0.524237,-0.034411,0.813828,0.718776,-0.021241,0.83847,0.596052,-0.031178,1,0,0
101,'2026/05/14 11:50:18:799',1,0.764487,0.889648,0,0.571988,0.723292,-0.0677,0.706237,0.682326,-0.013778,0.674086,0.507205,-0.046833,0.745232,0.672907,-0.012179,0.747708,0.490399,-0.030814,0.780835,0.68797,-0.014876,0.780504,0.525456,-0.03364,0.814209,0.717774,-0.02105,0.838596,0.596934,-0.02976,1,0,0
102,'2026/05/14 11:50:18:828',1,0.763988,0.891168,0,0.571053,0.72229,-0.072118,0.706638,0.683208,-0.016312,0.675433,0.507421,-0.052888,0.745533,0.673842,-0.01496,0.747277,0.491352,-0.036911,0.781186,0.688573,-0.017918,0.780803,0.523392,-0.039492,0.814717,0.718854,-0.024388,0.838399,0.596246,-0.035929,1,0,0
103,'2026/05/14 11:50:18:856',1,0.763429,0.891553,0,0.570643,0.722236,-0.069493,0.706186,0.682338,-0.0142,0.675317,0.507333,-0.048354,0.745173,0.673004,-0.012369,0.748123,0.490273,-0.031258,0.780602,0.687967,-0.015071,0.779739,0.525628,-0.034338,0.814201,0.718154,-0.021404,0.838755,0.596233,-0.031197,1,0,0
104,'2026/05/14 11:50:18:888',1,0.763786,0.891075,0,0.570824,0.723301,-0.067965,0.70589,0.683329,-0.013674,0.673999,0.507021,-0.046472,0.744972,0.674106,-0.011807,0.747913,0.489806,-0.030171,0.780307,0.689328,-0.014333,0.780253,0.525764,-0.033204,0.813709,0.719245,-0.020384,0.839065,0.596606,-0.029405,1,0,0
105,'2026/05/14 11:50:18:921',1,0.763552,0.890534,0,0.571173,0.723296,-0.068643,0.70593,0.68338,-0.014408,0.67387,0.507593,-0.048709,0.744834,0.673889,-0.012858,0.7482,0.488933,-0.033299,0.780055,0.688758,-0.015633,0.780254,0.525852,-0.035692,0.813473,0.71884,-0.021882,0.838473,0.596216,-0.031142,1,0,0
106,'2026/05/14 11:50:18:952',1,0.762868,0.890439,0,0.570594,0.723311,-0.069623,0.705717,0.683643,-0.015182,0.674273,0.508189,-0.049493,0.744698,0.673889,-0.013572,0.746977,0.490273,-0.032863,0.780258,0.688805,-0.016227,0.779691,0.524599,-0.03516,0.813609,0.718682,-0.02238,0.838139,0.596597,-0.031526,1,0,0
107,'2026/05/14 11:50:18:982',1,0.763577,0.890594,0,0.570343,0.721551,-0.070626,0.705765,0.68299,-0.014698,0.674815,0.508019,-0.050058,0.745195,0.673395,-0.013375,0.74652,0.490847,-0.034508,0.78103,0.68818,-0.01647,0.779396,0.522699,-0.038205,0.814627,0.718663,-0.023085,0.838279,0.595758,-0.035272,1,0,0
108,'2026/05/14 11:50:19:013',1,0.763034,0.891904,0,0.57,0.721596,-0.070797,0.70571,0.683447,-0.015001,0.674148,0.507525,-0.049637,0.744862,0.673713,-0.013095,0.74689,0.490703,-0.03266,0.78035,0.688254,-0.015664,0.77933,0.523868,-0.035902,0.813795,0.71805,-0.021837,0.837853,0.596527,-0.032938,1,0,0
109,'2026/05/14 11:50:19:044',1,0.763136,0.890165,0,0.570001,0.721556,-0.070625,0.705747,0.68373,-0.014711,0.675096,0.508389,-0.049619,0.744985,0.673527,-0.013062,0.746856,0.490147,-0.033226,0.780742,0.687428,-0.015843,0.779759,0.523824,-0.037044,0.814426,0.716958,-0.02218,0.838401,0.596759,-0.033857,1,0,0
110,'2026/05/14 11:50:19:076',1,0.763495,0.890485,0,0.570711,0.721886,-0.068533,0.705735,0.682926,-0.013603,0.674848,0.507476,-0.047334,0.74489,0.673355,-0.01184,0.747068,0.491295,-0.030591,0.780506,0.688413,-0.014514,0.779381,0.524095,-0.033976,0.814196,0.718754,-0.02073,0.83745,0.596129,-0.031107,1,0,0
111,'2026/05/14 11:50:19:106',1,0.763486,0.889702,0,0.571268,0.723722,-0.069949,0.705617,0.68306,-0.014678,0.674541,0.50768,-0.048903,0.744447,0.673501,-0.012943,0.746746,0.49021,-0.032583,0.779847,0.688284,-0.015647,0.779413,0.524438,-0.035372,0.813368,0.718291,-0.021931,0.837902,0.596124,-0.031992,1,0,0
112,'2026/05/14 11:50:19:136',1,0.763354,0.891784,0,0.570894,0.722436,-0.068397,0.705677,0.682924,-0.013759,0.674767,0.506909,-0.048049,0.744456,0.673377,-0.012678,0.746769,0.490449,-0.032513,0.780024,0.688155,-0.016019,0.778903,0.524013,-0.036784,0.813697,0.718397,-0.022863,0.837685,0.596106,-0.034117,1,0,0
113,'2026/05/14 11:50:19:172',1,0.761845,0.891504,0,0.569191,0.721709,-0.072307,0.704941,0.68382,-0.017418,0.674228,0.506595,-0.053697,0.743947,0.674504,-0.016018,0.74654,0.489857,-0.037698,0.779445,0.689368,-0.018896,0.778802,0.523957,-0.040261,0.813077,0.719736,-0.025318,0.837752,0.595959,-0.037233,1,0,0
114,'2026/05/14 11:50:19:199',1,0.762555,0.890343,0,0.569461,0.720875,-0.07108,0.704656,0.68356,-0.015801,0.673912,0.507313,-0.050649,0.74391,0.674362,-0.013875,0.746574,0.49081,-0.033576,0.779591,0.689062,-0.016382,0.77872,0.524054,-0.036822,0.813134,0.718893,-0.022459,0.837113,0.596362,-0.033527,1,0,0
115,'2026/05/14 11:50:19:239',1,0.762373,0.889942,0,0.569484,0.722542,-0.072111,0.704572,0.683066,-0.016285,0.674076,0.506873,-0.05289,0.743488,0.673391,-0.014696,0.746253,0.490081,-0.035984,0.779086,0.687899,-0.01753,0.779185,0.525081,-0.03823,0.812696,0.718005,-0.023994,0.837273,0.596096,-0.035245,1,0,0
116,'2026/05/14 11:50:19:277',1,0.761788,0.890744,0,0.568891,0.722197,-0.070149,0.704395,0.682166,-0.014421,0.674291,0.507108,-0.048881,0.743658,0.672876,-0.013124,0.745545,0.490373,-0.033357,0.779368,0.688123,-0.016206,0.778718,0.523556,-0.036826,0.81301,0.718803,-0.022791,0.837061,0.595902,-0.034132,1,0,0
117,'2026/05/14 11:50:19:308',1,0.761668,0.89102,0,0.568581,0.721111,-0.073663,0.704661,0.68299,-0.017579,0.673357,0.507245,-0.053756,0.7438,0.673544,-0.015764,0.74567,0.490194,-0.036457,0.779446,0.688258,-0.018292,0.778631,0.523975,-0.038611,0.812896,0.71841,-0.024414,0.836595,0.595903,-0.035512,1,0,0
118,'2026/05/14 11:50:19:340',1,0.762272,0.889683,0,0.568329,0.720531,-0.073779,0.703867,0.683457,-0.017834,0.67371,0.506593,-0.054353,0.743161,0.674068,-0.015974,0.744993,0.489558,-0.038188,0.778895,0.688529,-0.018501,0.777731,0.523569,-0.040652,0.812586,0.718451,-0.024595,0.836486,0.595694,-0.037109,1,0,0
119,'2026/05/14 11:50:19:370',1,0.762061,0.889924,0,0.569727,0.721703,-0.071641,0.70458,0.682861,-0.016748,0.673695,0.506773,-0.052624,0.743502,0.673247,-0.015309,0.745356,0.49075,-0.036545,0.779176,0.687831,-0.018154,0.778427,0.523575,-0.03967,0.81293,0.718004,-0.024494,0.836602,0.595409,-0.036953,1,0,0
120,'2026/05/14 11:50:19:404',1,0.761576,0.889787,0,0.568137,0.720945,-0.071396,0.703457,0.683589,-0.016396,0.673572,0.506978,-0.051833,0.742512,0.673958,-0.014415,0.745141,0.489405,-0.035572,0.778082,0.687844,-0.016857,0.777429,0.524802,-0.038584,0.811753,0.716961,-0.022843,0.836584,0.595592,-0.034463,1,0,0
121,'2026/05/14 11:50:19:433',1,0.76144,0.889666,0,0.56771,0.720302,-0.073575,0.703428,0.683034,-0.016843,0.672894,0.506788,-0.052705,0.742679,0.673045,-0.014648,0.744595,0.489552,-0.034642,0.778516,0.687046,-0.016953,0.778045,0.524791,-0.036742,0.812115,0.716504,-0.022956,0.835942,0.596338,-0.033249,1,0,0
122,'2026/05/14 11:50:19:467',1,0.761289,0.890006,0,0.568202,0.72121,-0.073997,0.703517,0.682843,-0.017781,0.672728,0.50636,-0.054565,0.74269,0.67353,-0.015969,0.744422,0.489507,-0.038302,0.778386,0.687941,-0.018574,0.777336,0.524439,-0.041302,0.811992,0.717741,-0.024746,0.836145,0.59606,-0.037604,1,0,0
123,'2026/05/14 11:50:19:497',1,0.761318,0.89054,0,0.568678,0.720654,-0.071275,0.704209,0.682286,-0.01521,0.674221,0.506499,-0.050715,0.743332,0.67302,-0.013668,0.745297,0.490151,-0.035001,0.77896,0.687619,-0.016552,0.777532,0.523063,-0.037844,0.81253,0.717476,-0.022991,0.836695,0.594956,-0.034919,1,0,0
124,'2026/05/14 11:50:19:529',1,0.762058,0.89039,0,0.569755,0.721132,-0.072252,0.704621,0.682641,-0.016656,0.673951,0.506772,-0.052143,0.743591,0.672512,-0.014781,0.744645,0.490521,-0.035286,0.779224,0.686954,-0.017282,0.777917,0.521987,-0.037967,0.812901,0.717112,-0.023391,0.836289,0.595031,-0.035284,1,0,0
125,'2026/05/14 11:50:19:558',1,0.761801,0.890159,0,0.568702,0.721156,-0.071876,0.704502,0.682433,-0.015688,0.674444,0.50679,-0.05066,0.743656,0.672769,-0.013588,0.745476,0.49002,-0.033145,0.779282,0.687492,-0.015976,0.778598,0.523302,-0.036021,0.812813,0.71762,-0.022001,0.836831,0.595582,-0.03345,1,0,0
126,'2026/05/14 11:50:19:592',1,0.762434,0.890235,0,0.569694,0.72134,-0.069203,0.704996,0.682867,-0.014146,0.675011,0.507118,-0.047562,0.744142,0.673139,-0.012286,0.746081,0.491004,-0.031421,0.779717,0.68795,-0.014846,0.77891,0.522217,-0.035533,0.813163,0.718233,-0.020937,0.837974,0.596635,-0.032989,1,0,0
127,'2026/05/14 11:50:19:623',1,0.762851,0.890646,0,0.569762,0.721391,-0.069889,0.704842,0.683235,-0.015424,0.675283,0.506589,-0.04989,0.743623,0.673889,-0.0135,0.746698,0.490408,-0.032977,0.779154,0.688637,-0.016062,0.779064,0.525412,-0.035839,0.812788,0.71857,-0.022255,0.8375,0.596189,-0.032782,1,0,0
128,'2026/05/14 11:50:19:652',1,0.762404,0.892076,0,0.570077,0.721744,-0.068724,0.705071,0.682964,-0.013685,0.675326,0.507423,-0.047517,0.744244,0.673489,-0.01232,0.74649,0.490835,-0.031687,0.779886,0.688425,-0.015452,0.779525,0.523916,-0.035858,0.813629,0.71874,-0.022152,0.837535,0.596402,-0.033767,1,0,0
129,'2026/05/14 11:50:19:683',1,0.762321,0.889337,0,0.570447,0.722705,-0.068555,0.704886,0.682923,-0.013838,0.674611,0.507143,-0.047677,0.743899,0.673841,-0.012152,0.746575,0.491215,-0.031951,0.779227,0.688931,-0.014882,0.779289,0.525728,-0.035008,0.812614,0.718925,-0.021122,0.83792,0.595828,-0.031586,1,0,0
130,'2026/05/14 11:50:19:715',1,0.761944,0.891573,0,0.569866,0.72172,-0.070884,0.705445,0.683258,-0.015352,0.675392,0.507018,-0.050092,0.744494,0.673892,-0.013085,0.747475,0.489157,-0.031683,0.779916,0.688612,-0.01536,0.779724,0.526093,-0.032946,0.813325,0.718376,-0.021371,0.837499,0.596812,-0.029661,1,0,0
131,'2026/05/14 11:50:19:749',1,0.761772,0.891952,0,0.568051,0.72096,-0.071536,0.704592,0.682523,-0.015461,0.675032,0.505921,-0.049982,0.74374,0.673281,-0.01342,0.746906,0.489548,-0.032735,0.779411,0.688296,-0.015957,0.779205,0.524204,-0.035893,0.813067,0.718334,-0.022199,0.837306,0.595585,-0.033288,1,0,0
132,'2026/05/14 11:50:19:779',1,0.761542,0.889786,0,0.568968,0.720955,-0.072199,0.704372,0.682263,-0.016099,0.675041,0.505766,-0.051505,0.743536,0.672907,-0.014279,0.74621,0.4894,-0.034809,0.779245,0.68772,-0.016883,0.77896,0.52411,-0.037103,0.813014,0.717634,-0.023098,0.837152,0.595066,-0.034077,1,0,0
133,'2026/05/14 11:50:19:810',1,0.761711,0.889667,0,0.569076,0.720096,-0.071947,0.704321,0.682859,-0.016464,0.67427,0.506358,-0.052083,0.743443,0.673562,-0.014689,0.746053,0.489817,-0.036214,0.77904,0.688333,-0.017298,0.778526,0.522526,-0.03949,0.812716,0.718657,-0.023442,0.837535,0.595064,-0.036462,1,0,0
134,'2026/05/14 11:50:19:856',1,0.762159,0.890416,0,0.569699,0.721068,-0.069538,0.704985,0.682367,-0.015228,0.674325,0.506072,-0.049466,0.743811,0.673005,-0.013595,0.746403,0.490136,-0.033018,0.779371,0.687886,-0.016317,0.77947,0.523523,-0.036093,0.812728,0.717623,-0.022568,0.837754,0.595523,-0.032915,1,0,0
135,'2026/05/14 11:50:19:887',1,0.762569,0.891069,0,0.570774,0.721633,-0.06856,0.705047,0.6822,-0.013987,0.675165,0.506932,-0.047575,0.744067,0.672615,-0.012383,0.746705,0.490109,-0.030707,0.779899,0.687516,-0.015259,0.779095,0.52355,-0.034258,0.813745,0.717589,-0.021712,0.837794,0.595569,-0.031794,1,0,0
136,'2026/05/14 11:50:19:943',1,0.762749,0.890844,0,0.570769,0.72117,-0.072743,0.705049,0.683067,-0.01795,0.675022,0.506307,-0.054162,0.744106,0.674046,-0.016037,0.74705,0.488107,-0.036797,0.779776,0.688743,-0.018473,0.779633,0.524613,-0.03823,0.813266,0.718608,-0.024519,0.838117,0.596289,-0.03451,1,0,0
137,'2026/05/14 11:50:19:984',1,0.761829,0.88887,0,0.5706,0.721005,-0.071698,0.705727,0.682332,-0.016397,0.675877,0.506675,-0.052384,0.744563,0.673361,-0.014849,0.747543,0.489898,-0.036801,0.779861,0.68847,-0.017564,0.780105,0.524624,-0.038887,0.813189,0.71869,-0.02377,0.838588,0.596192,-0.03501,1,0,0
138,'2026/05/14 11:50:20:012',1,0.762134,0.890562,0,0.57027,0.721262,-0.070054,0.706125,0.682805,-0.014836,0.676587,0.506697,-0.048772,0.745055,0.673545,-0.012737,0.748311,0.488992,-0.032117,0.780393,0.688435,-0.015087,0.780099,0.524911,-0.034603,0.813779,0.718231,-0.021041,0.838599,0.59669,-0.030973,1,0,0
139,'2026/05/14 11:50:20:043',1,0.763746,0.889949,0,0.571965,0.720947,-0.068237,0.706523,0.682858,-0.014614,0.676444,0.507013,-0.048217,0.745229,0.673652,-0.013057,0.748146,0.49095,-0.032314,0.780614,0.688761,-0.015813,0.780002,0.523259,-0.035994,0.814122,0.719212,-0.022036,0.839299,0.596845,-0.032954,1,0,0
140,'2026/05/14 11:50:20:075',1,0.764013,0.891718,0,0.571872,0.72097,-0.070126,0.706896,0.682955,-0.014639,0.676637,0.506862,-0.049492,0.745894,0.673426,-0.012894,0.748328,0.489941,-0.032561,0.781274,0.688277,-0.015665,0.779452,0.522986,-0.035501,0.814828,0.7186,-0.022074,0.839115,0.596178,-0.032895,1,0,0
141,'2026/05/14 11:50:20:106',1,0.763485,0.890315,0,0.570843,0.71999,-0.069723,0.70686,0.681849,-0.014058,0.67731,0.506635,-0.047735,0.746126,0.672479,-0.012518,0.748467,0.490234,-0.032864,0.781738,0.68715,-0.015366,0.779465,0.522412,-0.037369,0.81534,0.717254,-0.021658,0.839826,0.596221,-0.034303,1,0,0
142,'2026/05/14 11:50:20:136',1,0.763356,0.891625,0,0.571643,0.720164,-0.067122,0.70697,0.682111,-0.01242,0.677888,0.506824,-0.044482,0.746113,0.673088,-0.010819,0.748815,0.490555,-0.029164,0.781613,0.688436,-0.013701,0.779041,0.522243,-0.034196,0.81529,0.718976,-0.020067,0.839493,0.596819,-0.031997,1,0,0
143,'2026/05/14 11:50:20:180',1,0.764126,0.890644,0,0.571417,0.720165,-0.069846,0.707008,0.6827,-0.015576,0.677538,0.50634,-0.050608,0.745799,0.673206,-0.014081,0.748757,0.489706,-0.03497,0.781362,0.687763,-0.016887,0.77982,0.521632,-0.038217,0.815132,0.717947,-0.023181,0.839745,0.595456,-0.034763,1,0,0
144,'2026/05/14 11:50:20:218',1,0.763448,0.89149,0,0.570472,0.719701,-0.071053,0.706784,0.681966,-0.015165,0.678314,0.506134,-0.050453,0.745947,0.672834,-0.013609,0.748828,0.489318,-0.034405,0.78158,0.687944,-0.016516,0.780187,0.522416,-0.037902,0.815195,0.718607,-0.023002,0.839661,0.596152,-0.035514,1,0,0
145,'2026/05/14 11:50:20:247',1,0.761944,0.889968,0,0.571113,0.720382,-0.069843,0.706788,0.682014,-0.014767,0.677183,0.506264,-0.049832,0.745593,0.672808,-0.013191,0.748879,0.489306,-0.03396,0.780916,0.687912,-0.016008,0.780027,0.523439,-0.036925,0.81437,0.718444,-0.022346,0.839915,0.595566,-0.033607,1,0,0
146,'2026/05/14 11:50:20:279',1,0.762613,0.890658,0,0.570319,0.720064,-0.072166,0.706883,0.681769,-0.016232,0.677533,0.505831,-0.051207,0.745976,0.672255,-0.014535,0.748599,0.488878,-0.034745,0.781738,0.687152,-0.017288,0.779624,0.520949,-0.038447,0.815533,0.717704,-0.023637,0.839456,0.595025,-0.036094,1,0,0
147,'2026/05/14 11:50:20:309',1,0.761886,0.889127,0,0.569058,0.719413,-0.071435,0.705979,0.681637,-0.015604,0.677562,0.505287,-0.050193,0.744854,0.672679,-0.013917,0.747737,0.48836,-0.035453,0.780361,0.6876,-0.016587,0.779477,0.521305,-0.039005,0.814192,0.717862,-0.022758,0.83941,0.594334,-0.03569,1,0,0
148,'2026/05/14 11:50:20:341',1,0.761734,0.890208,0,0.568896,0.719835,-0.073006,0.705597,0.681867,-0.017557,0.677092,0.505077,-0.053224,0.74466,0.673009,-0.015825,0.747366,0.488055,-0.037897,0.780329,0.688064,-0.01842,0.778857,0.521017,-0.041141,0.814171,0.718721,-0.024518,0.839355,0.5949,-0.038037,1,0,0
149,'2026/05/14 11:50:20:373',1,0.762616,0.891397,0,0.570852,0.720041,-0.071285,0.705743,0.682111,-0.016393,0.676126,0.504914,-0.052202,0.744806,0.673259,-0.014933,0.747797,0.488513,-0.036435,0.780351,0.688589,-0.017856,0.779843,0.521168,-0.039861,0.813713,0.719417,-0.024293,0.838823,0.595156,-0.036962,1,0,0
150,'2026/05/14 11:50:20:403',1,0.761905,0.889921,0,0.569101,0.719323,-0.073062,0.70536,0.682208,-0.018017,0.676787,0.504317,-0.054442,0.744492,0.673277,-0.016214,0.747961,0.48851,-0.038754,0.780137,0.687835,-0.018707,0.779063,0.52247,-0.041481,0.813952,0.717741,-0.024695,0.838743,0.594788,-0.037877,1,0,0
151,'2026/05/14 11:50:20:439',1,0.761691,0.8896,0,0.570153,0.719653,-0.069335,0.706173,0.681011,-0.013987,0.676898,0.505867,-0.048942,0.745066,0.672116,-0.012794,0.7479,0.488491,-0.033734,0.78034,0.687393,-0.016008,0.778936,0.520865,-0.037289,0.813818,0.71836,-0.0227,0.838347,0.593871,-0.034442,1,0,0
152,'2026/05/14 11:50:20:472',1,0.762263,0.889492,0,0.570256,0.720176,-0.071699,0.706166,0.681304,-0.016125,0.67682,0.50518,-0.052295,0.745019,0.672065,-0.014841,0.747609,0.488866,-0.036792,0.780591,0.68699,-0.017844,0.779568,0.520981,-0.039432,0.814361,0.717792,-0.024326,0.838844,0.594156,-0.036192,1,0,0
153,'2026/05/14 11:50:20:499',1,0.761604,0.892013,0,0.569551,0.7187,-0.07388,0.705331,0.681709,-0.016961,0.676935,0.505354,-0.05417,0.744481,0.672595,-0.015524,0.747209,0.488654,-0.037914,0.780309,0.687552,-0.018577,0.778895,0.521299,-0.041121,0.814148,0.718217,-0.025206,0.838222,0.594689,-0.038617,1,0,0
154,'2026/05/14 11:50:20:529',1,0.761823,0.889534,0,0.569493,0.719561,-0.070763,0.705549,0.68197,-0.016032,0.676616,0.505803,-0.05098,0.74448,0.672804,-0.014465,0.746801,0.489756,-0.035873,0.780153,0.687682,-0.017223,0.778847,0.520786,-0.040183,0.813819,0.718124,-0.023413,0.839127,0.59509,-0.037257,1,0,0
155,'2026/05/14 11:50:20:559',1,0.760973,0.890523,0,0.569432,0.71899,-0.069789,0.70518,0.681657,-0.015126,0.676092,0.505334,-0.049154,0.74402,0.672477,-0.013578,0.747204,0.488815,-0.033467,0.779457,0.687604,-0.016376,0.77877,0.521178,-0.037152,0.81301,0.718084,-0.022685,0.838066,0.594483,-0.034133,1,0,0
156,'2026/05/14 11:50:20:591',1,0.760986,0.889158,0,0.568852,0.719384,-0.072339,0.705062,0.681859,-0.017508,0.67583,0.505603,-0.053296,0.743744,0.673056,-0.015981,0.74716,0.487921,-0.037986,0.779056,0.688081,-0.018687,0.778441,0.521131,-0.040982,0.812722,0.718741,-0.024853,0.838172,0.594158,-0.037846,1,0,0
157,'2026/05/14 11:50:20:619',1,0.760891,0.890515,0,0.568066,0.718339,-0.07347,0.704254,0.681602,-0.016875,0.675629,0.505296,-0.053629,0.743429,0.672534,-0.015328,0.746434,0.48862,-0.037863,0.779268,0.687073,-0.018217,0.778052,0.52072,-0.04137,0.813073,0.717298,-0.024651,0.837343,0.594018,-0.038582,1,0,0
158,'2026/05/14 11:50:20:679',1,0.761511,0.891385,0,0.568461,0.719465,-0.072708,0.704511,0.682211,-0.017479,0.675375,0.505398,-0.053972,0.743178,0.672998,-0.015887,0.746664,0.488044,-0.036877,0.778508,0.687813,-0.018682,0.778154,0.521688,-0.039522,0.811901,0.718298,-0.025073,0.837535,0.59473,-0.037001,1,0,0
159,'2026/05/14 11:50:20:715',1,0.761205,0.891001,0,0.569094,0.719572,-0.071718,0.704832,0.681511,-0.015904,0.676331,0.505892,-0.051346,0.743853,0.672471,-0.014373,0.746606,0.489141,-0.034821,0.779498,0.687394,-0.017291,0.778447,0.521755,-0.037998,0.81314,0.717719,-0.023784,0.837757,0.594447,-0.035638,1,0,0
160,'2026/05/14 11:50:20:745',1,0.761752,0.892245,0,0.567747,0.718535,-0.071351,0.704707,0.68284,-0.016318,0.675696,0.505184,-0.051075,0.743881,0.673534,-0.014426,0.747377,0.489402,-0.035063,0.779425,0.687879,-0.016946,0.778191,0.521839,-0.039379,0.81322,0.717669,-0.022975,0.838201,0.594158,-0.036348,1,0,0
161,'2026/05/14 11:50:20:777',1,0.76118,0.891167,0,0.570338,0.719866,-0.068762,0.705136,0.681681,-0.014216,0.676672,0.506212,-0.047781,0.744155,0.672626,-0.012494,0.746951,0.4903,-0.031395,0.779626,0.688154,-0.015226,0.778578,0.521828,-0.035472,0.813267,0.719174,-0.021489,0.838078,0.596236,-0.033405,1,0,0
162,'2026/05/14 11:50:20:811',1,0.762076,0.89153,0,0.571379,0.720929,-0.071467,0.705236,0.682794,-0.016139,0.676366,0.505599,-0.051217,0.744024,0.673736,-0.014267,0.74704,0.487185,-0.034301,0.779477,0.688297,-0.016819,0.778976,0.523171,-0.036615,0.813123,0.718023,-0.022968,0.838191,0.59462,-0.033177,1,0,0
163,'2026/05/14 11:50:20:858',1,0.761237,0.890669,0,0.568751,0.719871,-0.074105,0.704777,0.682504,-0.018058,0.676477,0.506212,-0.054536,0.743842,0.673238,-0.016147,0.746728,0.488852,-0.037032,0.779444,0.68755,-0.018663,0.778175,0.523383,-0.039487,0.812964,0.717353,-0.024828,0.838203,0.595417,-0.03658,1,0,0
164,'2026/05/14 11:50:20:893',1,0.761924,0.891474,0,0.569537,0.718615,-0.074661,0.704586,0.683426,-0.018209,0.676243,0.506774,-0.054853,0.743856,0.673886,-0.016287,0.746778,0.489986,-0.0385,0.779746,0.688077,-0.01877,0.778997,0.521344,-0.041644,0.81352,0.718157,-0.024836,0.837802,0.595397,-0.038797,1,0,0
165,'2026/05/14 11:50:20:918',1,0.760797,0.890286,0,0.56747,0.719051,-0.072804,0.703881,0.683497,-0.017298,0.675798,0.505973,-0.053228,0.743074,0.674087,-0.014987,0.747028,0.488953,-0.035637,0.778569,0.688295,-0.017081,0.778398,0.523297,-0.038207,0.812026,0.717789,-0.022746,0.83738,0.595034,-0.034706,1,0,0
166,'2026/05/14 11:50:20:948',1,0.761293,0.890957,0,0.568519,0.718161,-0.072801,0.703695,0.683036,-0.016862,0.676182,0.506256,-0.051643,0.743123,0.673487,-0.014241,0.746817,0.4905,-0.033032,0.778944,0.687339,-0.016224,0.778697,0.524148,-0.03602,0.812906,0.716642,-0.021957,0.837109,0.595228,-0.033397,1,0,0
167,'2026/05/14 11:50:20:983',1,0.761118,0.890516,0,0.569343,0.71914,-0.073903,0.704825,0.682214,-0.017713,0.675648,0.505833,-0.054283,0.743731,0.673272,-0.015998,0.746955,0.489252,-0.037697,0.779128,0.688126,-0.018663,0.778146,0.523198,-0.04017,0.812562,0.71832,-0.024892,0.837262,0.594883,-0.037169,1,0,0
168,'2026/05/14 11:50:21:013',1,0.761043,0.889237,0,0.569317,0.719807,-0.070225,0.70423,0.682063,-0.015699,0.67602,0.506347,-0.049661,0.743273,0.673294,-0.0139,0.746822,0.488084,-0.033894,0.778658,0.688258,-0.01644,0.778272,0.523156,-0.037003,0.811867,0.718325,-0.022479,0.837195,0.595265,-0.033643,1,0,0
169,'2026/05/14 11:50:21:048',1,0.760654,0.891038,0,0.569112,0.718215,-0.070771,0.70438,0.682239,-0.015885,0.676325,0.506673,-0.050539,0.743499,0.673387,-0.014476,0.746791,0.490118,-0.03494,0.779104,0.688277,-0.017428,0.778684,0.522231,-0.039198,0.812662,0.71862,-0.023872,0.837304,0.595081,-0.036711,1,0,0
170,'2026/05/14 11:50:21:074',1,0.761011,0.889994,0,0.568974,0.719058,-0.073347,0.704542,0.681646,-0.01701,0.676584,0.505855,-0.052659,0.743608,0.672653,-0.014977,0.746764,0.489982,-0.035289,0.779249,0.687589,-0.0174,0.777863,0.522802,-0.037749,0.812974,0.717949,-0.023456,0.836634,0.595343,-0.035079,1,0,0
171,'2026/05/14 11:50:21:106',1,0.761855,0.891078,0,0.569493,0.719088,-0.071007,0.704999,0.683025,-0.016159,0.676754,0.506433,-0.050492,0.743768,0.673938,-0.014193,0.746552,0.490368,-0.034665,0.77914,0.688595,-0.016681,0.77814,0.52288,-0.038553,0.812649,0.71874,-0.022733,0.837153,0.595255,-0.036122,1,0,0
172,'2026/05/14 11:50:21:137',1,0.761588,0.891822,0,0.568751,0.718911,-0.073135,0.704717,0.6832,-0.017378,0.676961,0.507093,-0.052791,0.743516,0.674361,-0.015227,0.746723,0.491205,-0.035605,0.77894,0.688893,-0.017524,0.778305,0.524625,-0.038429,0.812513,0.718568,-0.023431,0.837761,0.596657,-0.035515,1,0,0
173,'2026/05/14 11:50:21:168',1,0.761506,0.890879,0,0.571522,0.721733,-0.069943,0.705302,0.683336,-0.015417,0.677083,0.507687,-0.05039,0.744185,0.674739,-0.014124,0.747443,0.491754,-0.035745,0.779489,0.690222,-0.01712,0.779481,0.524798,-0.03911,0.812641,0.721068,-0.02355,0.837877,0.597708,-0.035745,1,0,0
174,'2026/05/14 11:50:21:204',1,0.761494,0.890804,0,0.571961,0.720948,-0.069853,0.705666,0.683839,-0.015899,0.677859,0.507663,-0.050425,0.744597,0.675218,-0.013903,0.748804,0.489959,-0.034127,0.779737,0.690165,-0.016239,0.780077,0.527279,-0.036001,0.81308,0.720093,-0.022119,0.838367,0.597678,-0.031959,1,0,0
175,'2026/05/14 11:50:21:229',1,0.762149,0.892728,0,0.572736,0.721315,-0.067796,0.706531,0.683796,-0.014143,0.678335,0.508345,-0.047453,0.745089,0.675212,-0.012374,0.748862,0.491227,-0.031537,0.780186,0.690416,-0.014974,0.78014,0.526147,-0.034531,0.81348,0.720759,-0.021049,0.838852,0.598562,-0.030963,1,0,0
176,'2026/05/14 11:50:21:264',1,0.762834,0.893996,0,0.571837,0.719909,-0.070399,0.706957,0.684469,-0.015509,0.679515,0.508391,-0.050476,0.745709,0.676015,-0.013663,0.749623,0.49197,-0.034147,0.781008,0.691144,-0.01626,0.78043,0.524807,-0.037312,0.814591,0.721704,-0.0224,0.839527,0.597263,-0.03433,1,0,0
177,'2026/05/14 11:50:21:300',1,0.762644,0.894,0,0.573252,0.721272,-0.070465,0.707916,0.684681,-0.016185,0.679565,0.508597,-0.052065,0.746564,0.675846,-0.014744,0.75019,0.493125,-0.035979,0.781905,0.691158,-0.01767,0.781877,0.525564,-0.039048,0.81532,0.722178,-0.024137,0.839717,0.598456,-0.036214,1,0,0
178,'2026/05/14 11:50:21:324',1,0.76343,0.89342,0,0.573307,0.719728,-0.070207,0.708147,0.684465,-0.015156,0.680154,0.508106,-0.04972,0.746954,0.675626,-0.013572,0.750935,0.493503,-0.034134,0.782274,0.690692,-0.016366,0.782279,0.525674,-0.038022,0.815528,0.721073,-0.022644,0.840281,0.599558,-0.035329,1,0,0
179,'2026/05/14 11:50:21:355',1,0.762523,0.892384,0,0.573537,0.718921,-0.07076,0.708438,0.683631,-0.01566,0.681354,0.507173,-0.049666,0.74711,0.675376,-0.013843,0.751254,0.492677,-0.03401,0.782328,0.690823,-0.016376,0.782311,0.525794,-0.03754,0.815637,0.721473,-0.022396,0.839705,0.59908,-0.034456,1,0,0
180,'2026/05/14 11:50:21:386',1,0.762518,0.89348,0,0.574064,0.719678,-0.073771,0.708334,0.683928,-0.016893,0.6808,0.507798,-0.053703,0.74731,0.675337,-0.015612,0.750692,0.492874,-0.039126,0.782758,0.6907,-0.018701,0.782479,0.524768,-0.042872,0.816035,0.721797,-0.025253,0.840521,0.599723,-0.040449,1,0,0
181,'2026/05/14 11:50:21:416',1,0.763134,0.894243,0,0.573623,0.719301,-0.071369,0.708129,0.684647,-0.015818,0.681228,0.508556,-0.050832,0.747304,0.676028,-0.014157,0.750987,0.493026,-0.035005,0.782916,0.691213,-0.016899,0.782848,0.525332,-0.038743,0.816348,0.722013,-0.023143,0.840514,0.600349,-0.036412,1,0,0
182,'2026/05/14 11:50:21:461',1,0.762885,0.891398,0,0.574107,0.718882,-0.073529,0.70854,0.684532,-0.017506,0.68109,0.508628,-0.054024,0.747576,0.675724,-0.016124,0.751015,0.493653,-0.039906,0.782898,0.690497,-0.019007,0.782424,0.525459,-0.043211,0.816034,0.721237,-0.025321,0.840994,0.600429,-0.040598,1,0,0
183,'2026/05/14 11:50:21:487',1,0.763911,0.893543,0,0.572927,0.719884,-0.07096,0.708268,0.684907,-0.015416,0.681275,0.508299,-0.048433,0.747437,0.676631,-0.013561,0.751292,0.493565,-0.033758,0.78297,0.692024,-0.016071,0.782902,0.525535,-0.038417,0.816603,0.722482,-0.022016,0.840718,0.599761,-0.03563,1,0,0
184,'2026/05/14 11:50:21:553',1,0.765013,0.894272,0,0.574869,0.720276,-0.069912,0.709256,0.685283,-0.014132,0.681856,0.508718,-0.048238,0.748197,0.676334,-0.012546,0.751597,0.494212,-0.033413,0.783549,0.691448,-0.015401,0.782714,0.526161,-0.037982,0.816892,0.722219,-0.021727,0.841509,0.601064,-0.035925,1,0,0
185,'2026/05/14 11:50:21:588',1,0.764935,0.894423,0,0.57396,0.719606,-0.072555,0.709246,0.685624,-0.01663,0.682105,0.509365,-0.051692,0.748457,0.676919,-0.014486,0.75235,0.494348,-0.03506,0.784077,0.691841,-0.016747,0.783984,0.526265,-0.038465,0.817415,0.721958,-0.022558,0.84151,0.600868,-0.035371,1,0,0
186,'2026/05/14 11:50:21:618',1,0.764626,0.895219,0,0.572888,0.719221,-0.071058,0.709234,0.686325,-0.016223,0.682536,0.509506,-0.050873,0.748486,0.677912,-0.01427,0.753166,0.494562,-0.035006,0.78412,0.693133,-0.016696,0.784448,0.526935,-0.039116,0.81755,0.72374,-0.022581,0.841797,0.601249,-0.036124,1,0,0
187,'2026/05/14 11:50:21:669',1,0.764449,0.895652,0,0.57461,0.720345,-0.072827,0.710037,0.686632,-0.0169,0.683455,0.50958,-0.052524,0.749098,0.678452,-0.014822,0.754173,0.495671,-0.036946,0.784351,0.693482,-0.017196,0.785251,0.52894,-0.040358,0.817537,0.723721,-0.023094,0.84251,0.60137,-0.037204,1,0,0
188,'2026/05/14 11:50:21:698',1,0.764717,0.895758,0,0.575204,0.719082,-0.07238,0.710165,0.686742,-0.01725,0.683542,0.509043,-0.053169,0.749185,0.678381,-0.01541,0.753973,0.494427,-0.03703,0.784523,0.693103,-0.017938,0.785622,0.528538,-0.040104,0.817761,0.723108,-0.023993,0.842417,0.601607,-0.037225,1,0,0
189,'2026/05/14 11:50:21:729',1,0.765282,0.897375,0,0.575585,0.719847,-0.070886,0.710115,0.687377,-0.015952,0.684146,0.509271,-0.051093,0.749096,0.678943,-0.0142,0.754282,0.494527,-0.035722,0.784435,0.694,-0.016888,0.784808,0.52767,-0.039288,0.817668,0.724338,-0.023106,0.84251,0.601788,-0.036435,1,0,0
190,'2026/05/14 11:50:21:760',1,0.76437,0.895446,0,0.574914,0.718914,-0.075917,0.710394,0.686764,-0.018633,0.683906,0.510028,-0.057041,0.74964,0.678523,-0.017189,0.754534,0.494755,-0.041464,0.78511,0.693444,-0.02011,0.78528,0.528637,-0.043295,0.818152,0.723953,-0.026596,0.842215,0.602174,-0.040169,1,0,0
191,'2026/05/14 11:50:21:791',1,0.765929,0.897849,0,0.574825,0.719102,-0.07039,0.710437,0.687338,-0.01605,0.683417,0.509352,-0.05047,0.749409,0.67884,-0.014063,0.754411,0.49471,-0.034032,0.78472,0.693954,-0.016486,0.78534,0.527705,-0.037806,0.81803,0.72434,-0.022422,0.842416,0.601306,-0.03525,1,0,0
192,'2026/05/14 11:50:21:825',1,0.765923,0.895664,0,0.576019,0.720986,-0.072384,0.710579,0.686778,-0.01683,0.683423,0.510758,-0.053333,0.749948,0.677741,-0.015284,0.754212,0.495832,-0.037623,0.785611,0.692542,-0.018079,0.785589,0.527886,-0.041083,0.818827,0.723356,-0.024329,0.842452,0.602155,-0.03836,1,0,0
193,'2026/05/14 11:50:21:854',1,0.764864,0.895303,0,0.575351,0.719995,-0.07053,0.710177,0.686579,-0.015982,0.684,0.509079,-0.050712,0.749094,0.678275,-0.014219,0.754615,0.494495,-0.034969,0.784387,0.693389,-0.016804,0.785219,0.52869,-0.038085,0.817677,0.72363,-0.022904,0.842289,0.601454,-0.034694,1,0,0
194,'2026/05/14 11:50:21:882',1,0.76549,0.8947,0,0.576178,0.719957,-0.072598,0.710455,0.686922,-0.017307,0.683602,0.509976,-0.053433,0.749603,0.678704,-0.01564,0.754529,0.495403,-0.037778,0.785155,0.693783,-0.018304,0.78563,0.528096,-0.040693,0.818587,0.724199,-0.024468,0.842965,0.601813,-0.037414,1,0,0
195,'2026/05/14 11:50:21:914',1,0.765693,0.896285,0,0.575093,0.719838,-0.070105,0.710832,0.686841,-0.015683,0.684143,0.509682,-0.049861,0.749756,0.67858,-0.014055,0.754484,0.495924,-0.034951,0.78501,0.693772,-0.016735,0.785384,0.528906,-0.038637,0.818424,0.724303,-0.022857,0.842554,0.601904,-0.035523,1,0,0
196,'2026/05/14 11:50:21:944',1,0.76567,0.894816,0,0.575926,0.720471,-0.072263,0.710993,0.686313,-0.017545,0.683976,0.509337,-0.053842,0.749774,0.678019,-0.016172,0.753852,0.494519,-0.039117,0.784932,0.693418,-0.019036,0.785007,0.528034,-0.042162,0.817728,0.724178,-0.025339,0.842201,0.601892,-0.039172,1,0,0
197,'2026/05/14 11:50:21:979',1,0.764732,0.894999,0,0.574799,0.719963,-0.06987,0.710678,0.686519,-0.015199,0.684682,0.509571,-0.049009,0.749512,0.678523,-0.013436,0.754497,0.495346,-0.034055,0.784704,0.693985,-0.016059,0.785557,0.528868,-0.037973,0.817848,0.724455,-0.022134,0.842306,0.601614,-0.034927,1,0,0
198,'2026/05/14 11:50:22:007',1,0.765242,0.895402,0,0.57519,0.720495,-0.072182,0.710715,0.68684,-0.017052,0.684788,0.509818,-0.052349,0.749537,0.678953,-0.015541,0.754473,0.495346,-0.038081,0.784723,0.694277,-0.018272,0.785684,0.52806,-0.041513,0.818046,0.724881,-0.024405,0.842824,0.602043,-0.038312,1,0,0
199,'2026/05/14 11:50:22:038',1,0.765581,0.89541,0,0.576077,0.721072,-0.071172,0.71108,0.686629,-0.015944,0.684675,0.51051,-0.050241,0.749977,0.678567,-0.01415,0.754691,0.495976,-0.035708,0.785155,0.693839,-0.016687,0.785612,0.528642,-0.039516,0.818482,0.724087,-0.022654,0.842815,0.601736,-0.036368,1,0,0
200,'2026/05/14 11:50:22:070',1,0.765805,0.895954,0,0.575945,0.721305,-0.070845,0.710494,0.687618,-0.015996,0.68465,0.51019,-0.049966,0.749701,0.679519,-0.014487,0.7549,0.496507,-0.036142,0.785255,0.694906,-0.017237,0.785732,0.528628,-0.040839,0.81874,0.725463,-0.023314,0.843424,0.603407,-0.03754,1,0,0
201,'2026/05/14 11:50:22:100',1,0.765453,0.895898,0,0.576063,0.720779,-0.073576,0.711509,0.686766,-0.017476,0.685234,0.510426,-0.053397,0.750592,0.678503,-0.015639,0.755175,0.495863,-0.038009,0.785865,0.693839,-0.018108,0.786378,0.528189,-0.041013,0.819071,0.724629,-0.024051,0.843732,0.601907,-0.037952,1,0,0
202,'2026/05/14 11:50:22:134',1,0.76595,0.896015,0,0.574756,0.720642,-0.070699,0.71096,0.687381,-0.015892,0.685097,0.510079,-0.05091,0.749658,0.679101,-0.014331,0.755802,0.494742,-0.03579,0.784821,0.694201,-0.017063,0.785983,0.529303,-0.038752,0.81809,0.724512,-0.02324,0.843073,0.602263,-0.035205,1,0,0
203,'2026/05/14 11:50:22:165',1,0.765753,0.897037,0,0.57531,0.719697,-0.074058,0.710808,0.687372,-0.017639,0.684918,0.510294,-0.05401,0.749897,0.678788,-0.015364,0.755087,0.495462,-0.035863,0.78544,0.693613,-0.017572,0.786392,0.530063,-0.037951,0.81874,0.723879,-0.023442,0.843319,0.603271,-0.034973,1,0,0
204,'2026/05/14 11:50:22:216',1,0.765721,0.895368,0,0.574709,0.720114,-0.070926,0.710813,0.687857,-0.016224,0.685293,0.509983,-0.050035,0.749761,0.679833,-0.014011,0.755128,0.495536,-0.034536,0.785009,0.695049,-0.016114,0.785621,0.529155,-0.037595,0.818184,0.725322,-0.021698,0.843507,0.602911,-0.033911,1,0,0
205,'2026/05/14 11:50:22:244',1,0.766482,0.895589,0,0.575579,0.72121,-0.070139,0.711162,0.688028,-0.015675,0.685148,0.511074,-0.049578,0.75012,0.679788,-0.014076,0.754673,0.496081,-0.035428,0.785372,0.695192,-0.016733,0.78581,0.528766,-0.039254,0.818627,0.725904,-0.022776,0.843182,0.602557,-0.036219,1,0,0
206,'2026/05/14 11:50:22:274',1,0.76659,0.896283,0,0.575957,0.721624,-0.069669,0.71162,0.687168,-0.014993,0.684795,0.510514,-0.048554,0.75008,0.678624,-0.013125,0.754978,0.495657,-0.032645,0.785093,0.693809,-0.015661,0.78606,0.52899,-0.036751,0.818036,0.724003,-0.021683,0.842978,0.603109,-0.033805,1,0,0
207,'2026/05/14 11:50:22:306',1,0.765574,0.896561,0,0.574968,0.720482,-0.073155,0.710999,0.688197,-0.017128,0.685025,0.510903,-0.053229,0.750166,0.679709,-0.015205,0.754943,0.495742,-0.037531,0.785468,0.694426,-0.0176,0.786475,0.52984,-0.04013,0.81857,0.724518,-0.023497,0.842784,0.603444,-0.036468,1,0,0
208,'2026/05/14 11:50:22:341',1,0.766171,0.896517,0,0.575955,0.721129,-0.07514,0.710974,0.68851,-0.018905,0.684716,0.510315,-0.055871,0.750142,0.679831,-0.017122,0.755103,0.496465,-0.04067,0.785708,0.694413,-0.019635,0.786567,0.529061,-0.043504,0.819001,0.724739,-0.025632,0.843271,0.603078,-0.040316,1,0,0
209,'2026/05/14 11:50:22:369',1,0.765963,0.896594,0,0.576044,0.720398,-0.069933,0.711679,0.687875,-0.015801,0.685766,0.510326,-0.050495,0.750287,0.679883,-0.0143,0.755601,0.495984,-0.035963,0.785359,0.695088,-0.017068,0.786197,0.529677,-0.039135,0.818538,0.725525,-0.023237,0.844005,0.603683,-0.035777,1,0,0
210,'2026/05/14 11:50:22:398',1,0.76701,0.897676,0,0.576684,0.720367,-0.072151,0.71194,0.687403,-0.016713,0.685825,0.510804,-0.051452,0.750772,0.678961,-0.014851,0.755292,0.496202,-0.035656,0.785821,0.693902,-0.017375,0.786357,0.529049,-0.039039,0.818734,0.724039,-0.023446,0.843718,0.602119,-0.036379,1,0,0
211,'2026/05/14 11:50:22:431',1,0.766434,0.897262,0,0.576934,0.721849,-0.071506,0.711768,0.687388,-0.015947,0.685322,0.511345,-0.051054,0.751044,0.679004,-0.014739,0.755345,0.496959,-0.037724,0.786395,0.694486,-0.017777,0.786817,0.529386,-0.041918,0.819511,0.725796,-0.024164,0.84438,0.604363,-0.039271,1,0,0
212,'2026/05/14 11:50:22:461',1,0.766183,0.896376,0,0.577613,0.720699,-0.070465,0.712141,0.687603,-0.016123,0.686253,0.511171,-0.050011,0.750859,0.679206,-0.014183,0.755664,0.497085,-0.034456,0.786033,0.694548,-0.016576,0.787118,0.529114,-0.038558,0.819195,0.725381,-0.022408,0.844741,0.603281,-0.03633,1,0,0
213,'2026/05/14 11:50:22:499',1,0.766187,0.896162,0,0.576979,0.720885,-0.073102,0.712058,0.688177,-0.017684,0.685859,0.510733,-0.052937,0.750752,0.679966,-0.015825,0.755966,0.495854,-0.038192,0.785733,0.695131,-0.018269,0.786819,0.530117,-0.041285,0.818741,0.725614,-0.024197,0.843666,0.602726,-0.038127,1,0,0
214,'2026/05/14 11:50:22:526',1,0.766935,0.896367,0,0.577767,0.720937,-0.071796,0.712612,0.687693,-0.016629,0.685962,0.511289,-0.051698,0.751206,0.67966,-0.014968,0.755951,0.497485,-0.036572,0.786334,0.695025,-0.017592,0.787257,0.530083,-0.03982,0.819631,0.725799,-0.023665,0.844446,0.603556,-0.036768,1,0,0
215,'2026/05/14 11:50:22:558',1,0.76678,0.89659,0,0.577379,0.720996,-0.072242,0.7125,0.688396,-0.017107,0.685931,0.512023,-0.052699,0.751379,0.68004,-0.015251,0.755934,0.497723,-0.036864,0.786467,0.695052,-0.017737,0.787125,0.530766,-0.040336,0.819319,0.725487,-0.023697,0.844791,0.604204,-0.037225,1,0,0
216,'2026/05/14 11:50:22:585',1,0.767577,0.897039,0,0.578614,0.721577,-0.072063,0.712789,0.688358,-0.017119,0.685981,0.511539,-0.053068,0.751505,0.679839,-0.015647,0.755808,0.497684,-0.039047,0.786594,0.694856,-0.018424,0.787069,0.530042,-0.042269,0.819641,0.725531,-0.024584,0.844516,0.603183,-0.039088,1,0,0
217,'2026/05/14 11:50:22:622',1,0.766865,0.896799,0,0.577442,0.721647,-0.073968,0.712435,0.68919,-0.017201,0.686407,0.512935,-0.053815,0.751339,0.680499,-0.015526,0.756038,0.497284,-0.039439,0.786475,0.695017,-0.018289,0.787435,0.530493,-0.043563,0.819619,0.725076,-0.024518,0.844705,0.604249,-0.040558,1,0,0
218,'2026/05/14 11:50:22:662',1,0.767278,0.896895,0,0.578217,0.721189,-0.072556,0.712417,0.688955,-0.016836,0.687027,0.51212,-0.052207,0.751647,0.680357,-0.015065,0.756146,0.497084,-0.037618,0.787111,0.695273,-0.017641,0.787735,0.529713,-0.041771,0.820326,0.72583,-0.023627,0.84458,0.605079,-0.038617,1,0,0
219,'2026/05/14 11:50:22:694',1,0.768041,0.895662,0,0.578788,0.721921,-0.07421,0.713372,0.689074,-0.018255,0.686873,0.512474,-0.054864,0.75222,0.680423,-0.016464,0.757361,0.498577,-0.040039,0.787483,0.695158,-0.018959,0.788683,0.530667,-0.043275,0.820717,0.725529,-0.024897,0.845741,0.603922,-0.040111,1,0,0
220,'2026/05/14 11:50:22:725',1,0.767493,0.896955,0,0.578706,0.723446,-0.073176,0.71337,0.689072,-0.016663,0.687476,0.513253,-0.052896,0.752631,0.680278,-0.015102,0.757317,0.496977,-0.038087,0.788148,0.695435,-0.017813,0.788849,0.529957,-0.041811,0.821225,0.726326,-0.023925,0.845348,0.605798,-0.038278,1,0,0
221,'2026/05/14 11:50:22:759',1,0.767029,0.896476,0,0.579043,0.721727,-0.073881,0.713514,0.689009,-0.018506,0.687369,0.512231,-0.055603,0.752616,0.680853,-0.017069,0.757562,0.497728,-0.041065,0.788001,0.696279,-0.019782,0.788935,0.530004,-0.043897,0.82121,0.727508,-0.02585,0.845658,0.604531,-0.040539,1,0,0
222,'2026/05/14 11:50:22:787',1,0.767356,0.89575,0,0.578776,0.721374,-0.071404,0.713644,0.688595,-0.01521,0.687794,0.512721,-0.049682,0.752851,0.680205,-0.013525,0.757639,0.497872,-0.035258,0.788195,0.695647,-0.016206,0.788922,0.530192,-0.039413,0.821444,0.726551,-0.022305,0.846443,0.605705,-0.036546,1,0,0
223,'2026/05/14 11:50:22:819',1,0.767546,0.898109,0,0.579591,0.721144,-0.072158,0.713961,0.688045,-0.015795,0.688094,0.511412,-0.051142,0.753124,0.680143,-0.014465,0.757965,0.496992,-0.037489,0.788375,0.696063,-0.017488,0.788963,0.530357,-0.041659,0.821482,0.727519,-0.023891,0.846144,0.605665,-0.03872,1,0,0
224,'2026/05/14 11:50:22:848',1,0.767993,0.895443,0,0.580637,0.722105,-0.068362,0.714552,0.68711,-0.014752,0.688564,0.51063,-0.047608,0.753378,0.679176,-0.013464,0.758583,0.497975,-0.033377,0.788571,0.695434,-0.016365,0.788836,0.530859,-0.037819,0.821569,0.726785,-0.022584,0.84696,0.605881,-0.035289,1,0,0
225,'2026/05/14 11:50:22:880',1,0.768432,0.896521,0,0.581237,0.721479,-0.066971,0.715221,0.686979,-0.01369,0.688635,0.510878,-0.046319,0.754032,0.678682,-0.012154,0.758569,0.49766,-0.030934,0.789267,0.694594,-0.014888,0.789304,0.530669,-0.035,0.822303,0.725604,-0.020994,0.847235,0.604278,-0.032517,1,0,0
226,'2026/05/14 11:50:22:922',1,0.768517,0.896835,0,0.581203,0.72182,-0.071823,0.715727,0.688504,-0.016272,0.689758,0.512242,-0.052061,0.754418,0.680642,-0.014823,0.759897,0.497961,-0.037253,0.789536,0.696301,-0.017678,0.790472,0.530918,-0.040498,0.822676,0.727447,-0.023969,0.847886,0.605137,-0.037285,1,0,0
227,'2026/05/14 11:50:22:959',1,0.770011,0.897426,0,0.582518,0.722684,-0.07037,0.716269,0.688517,-0.016352,0.6897,0.51143,-0.050661,0.755001,0.680542,-0.015251,0.759972,0.498399,-0.035925,0.790255,0.696531,-0.018309,0.790756,0.531079,-0.039573,0.8233,0.727849,-0.024762,0.848059,0.605248,-0.037139,1,0,0
228,'2026/05/14 11:50:22:993',1,0.770191,0.897081,0,0.582271,0.721448,-0.070856,0.716594,0.688916,-0.016072,0.690008,0.512405,-0.050056,0.755654,0.680823,-0.014371,0.760169,0.498523,-0.03514,0.790801,0.696389,-0.01694,0.791458,0.531766,-0.039078,0.823737,0.727228,-0.022925,0.848944,0.606101,-0.036389,1,0,0
229,'2026/05/14 11:50:23:021',1,0.77087,0.899343,0,0.581806,0.723982,-0.072399,0.717276,0.690126,-0.016585,0.690731,0.511661,-0.051721,0.755976,0.681908,-0.015289,0.760718,0.4983,-0.038889,0.790971,0.697798,-0.018225,0.791488,0.530326,-0.043105,0.823803,0.729328,-0.024502,0.849131,0.606843,-0.040389,1,0,0
230,'2026/05/14 11:50:23:055',1,0.769963,0.899486,0,0.581934,0.72467,-0.074988,0.717389,0.6892,-0.016952,0.690534,0.512819,-0.052607,0.75715,0.680879,-0.015412,0.761032,0.496816,-0.040638,0.7925,0.696607,-0.018047,0.792313,0.530096,-0.044408,0.825436,0.72799,-0.024047,0.850142,0.608476,-0.040114,1,0,0
231,'2026/05/14 11:50:23:086',1,0.771343,0.898974,0,0.583255,0.723583,-0.071857,0.718272,0.689686,-0.015734,0.691746,0.511847,-0.049696,0.757052,0.681479,-0.014102,0.761518,0.498708,-0.036416,0.792112,0.697355,-0.016725,0.792325,0.531238,-0.040402,0.82516,0.72855,-0.02275,0.850583,0.607136,-0.037579,1,0,0
232,'2026/05/14 11:50:41:684',2,0.755427,0.749433,-0.000001,0.698341,0.534511,-0.060996,0.693123,0.569635,-0.013029,0.697159,0.605118,-0.052006,0.731421,0.572263,-0.012162,0.727653,0.616614,-0.03487,0.7694,0.57946,-0.017315,0.75405,0.625539,-0.016418,0.806754,0.595056,-0.024879,0.787537,0.622589,-0.014351,0,1,0
233,'2026/05/14 11:50:41:713',2,0.75683,0.748295,-0.000001,0.701889,0.537455,-0.059544,0.696191,0.567849,-0.013598,0.698415,0.603231,-0.048125,0.734101,0.570507,-0.012916,0.730486,0.615585,-0.034171,0.771901,0.578073,-0.017897,0.757126,0.621965,-0.015591,0.808807,0.594105,-0.025234,0.790711,0.621028,-0.012943,0,1,0
234,'2026/05/14 11:50:41:743',2,0.758829,0.748432,-0.000001,0.699912,0.534565,-0.063762,0.695237,0.566693,-0.018255,0.698837,0.603392,-0.051843,0.733329,0.568929,-0.016423,0.729708,0.615893,-0.037063,0.771202,0.576392,-0.020175,0.756817,0.622377,-0.018613,0.807745,0.592446,-0.026323,0.789851,0.622658,-0.016327,0,1,0
235,'2026/05/14 11:50:41:780',2,0.758423,0.748213,-0.000001,0.702587,0.534856,-0.059046,0.69581,0.568025,-0.011149,0.698559,0.603954,-0.04717,0.733856,0.570746,-0.009907,0.729154,0.616089,-0.032525,0.771546,0.578267,-0.014466,0.756301,0.624678,-0.013722,0.808968,0.594876,-0.021331,0.790089,0.622789,-0.01006,0,1,0
236,'2026/05/14 11:50:41:807',2,0.757675,0.749243,-0.000001,0.702531,0.535896,-0.060197,0.697023,0.564193,-0.011927,0.698702,0.6021,-0.051471,0.734832,0.568149,-0.011828,0.730171,0.614659,-0.035631,0.772562,0.576603,-0.017544,0.757743,0.62285,-0.016148,0.809651,0.594066,-0.0256,0.789869,0.624041,-0.013102,0,1,0
237,'2026/05/14 11:50:41:853',2,0.760189,0.747792,-0.000001,0.703325,0.536609,-0.062249,0.697718,0.56572,-0.014955,0.701016,0.602526,-0.052948,0.735351,0.568469,-0.014296,0.731965,0.615819,-0.037432,0.77327,0.576038,-0.019225,0.758438,0.623207,-0.017873,0.810238,0.592183,-0.026481,0.791181,0.62363,-0.015145,0,1,0
238,'2026/05/14 11:50:41:886',2,0.760145,0.74758,-0.000001,0.704099,0.535602,-0.05943,0.697476,0.569334,-0.015639,0.700484,0.606547,-0.046886,0.735701,0.570517,-0.013982,0.731889,0.618047,-0.033588,0.773637,0.577501,-0.01775,0.758393,0.624493,-0.015621,0.810748,0.593727,-0.023843,0.791193,0.622841,-0.013573,0,1,0
239,'2026/05/14 11:50:41:919',2,0.760737,0.746694,-0.000001,0.701743,0.535877,-0.061199,0.697656,0.565207,-0.015999,0.700772,0.60314,-0.051581,0.73545,0.567999,-0.015248,0.731756,0.615198,-0.036835,0.77353,0.575678,-0.019892,0.758699,0.624017,-0.018242,0.810524,0.592059,-0.026768,0.792049,0.624197,-0.015566,0,1,0
240,'2026/05/14 11:50:41:954',2,0.762319,0.748099,-0.000001,0.70358,0.534797,-0.060627,0.698752,0.564247,-0.014615,0.701491,0.601744,-0.050301,0.736498,0.567436,-0.013666,0.732583,0.614922,-0.035778,0.774581,0.575401,-0.018306,0.759305,0.622964,-0.017527,0.811573,0.59156,-0.025197,0.792973,0.623484,-0.014271,0,1,0
241,'2026/05/14 11:50:41:981',2,0.76144,0.750119,-0.000001,0.704943,0.537183,-0.062327,0.698875,0.566191,-0.016115,0.701993,0.60261,-0.051275,0.736805,0.568736,-0.014745,0.733127,0.615469,-0.035945,0.774879,0.576503,-0.01887,0.760019,0.622937,-0.016485,0.811704,0.593034,-0.02535,0.792959,0.623147,-0.013356,0,1,0
242,'2026/05/14 11:50:42:013',2,0.760937,0.749063,-0.000001,0.703406,0.535619,-0.060132,0.699311,0.565139,-0.016486,0.703279,0.603068,-0.049799,0.737209,0.567478,-0.015334,0.733636,0.615531,-0.035839,0.775283,0.575315,-0.019539,0.760246,0.622245,-0.01674,0.812276,0.591954,-0.026097,0.79355,0.62176,-0.013793,0,1,0
243,'2026/05/14 11:50:42:047',2,0.759761,0.749953,-0.000001,0.705565,0.535419,-0.058385,0.697458,0.571937,-0.013276,0.702159,0.608779,-0.046422,0.736291,0.573266,-0.011356,0.731984,0.618905,-0.031856,0.774252,0.579904,-0.015164,0.758033,0.627205,-0.014411,0.81132,0.595605,-0.021375,0.792046,0.623411,-0.012743,0,1,0
244,'2026/05/14 11:50:42:078',2,0.759564,0.749933,-0.000001,0.70668,0.537711,-0.062517,0.698927,0.56929,-0.016435,0.701865,0.606414,-0.04864,0.737294,0.570756,-0.014455,0.73331,0.617651,-0.034952,0.775229,0.577951,-0.018147,0.759978,0.622923,-0.017358,0.812016,0.593854,-0.024248,0.793656,0.622131,-0.014554,0,1,0
245,'2026/05/14 11:50:42:121',2,0.760763,0.748985,-0.000001,0.70284,0.537346,-0.060883,0.6979,0.564912,-0.019156,0.702596,0.604089,-0.050655,0.736422,0.567279,-0.01727,0.733619,0.616136,-0.036659,0.774814,0.574961,-0.020722,0.760013,0.622746,-0.018423,0.811915,0.591349,-0.02658,0.793397,0.62262,-0.016023,0,1,0
246,'2026/05/14 11:50:42:153',2,0.760014,0.747614,-0.000001,0.704885,0.539868,-0.061139,0.698311,0.569935,-0.018338,0.702951,0.604568,-0.05153,0.737053,0.57144,-0.016733,0.733465,0.618473,-0.03686,0.775307,0.57842,-0.020435,0.759815,0.625688,-0.018281,0.812466,0.594171,-0.026495,0.793994,0.623414,-0.016348,0,1,0
247,'2026/05/14 11:50:42:187',2,0.760261,0.747681,-0.000001,0.706965,0.538006,-0.059197,0.700382,0.569521,-0.015048,0.70304,0.604625,-0.046922,0.738605,0.57146,-0.013705,0.734045,0.618848,-0.033741,0.776478,0.578825,-0.017796,0.760335,0.62475,-0.015503,0.813174,0.59504,-0.024255,0.793676,0.623924,-0.013402,0,1,0
248,'2026/05/14 11:50:42:212',2,0.759073,0.751025,-0.000001,0.704428,0.536459,-0.060571,0.697935,0.570962,-0.015892,0.701658,0.608495,-0.048947,0.736232,0.572645,-0.014226,0.73256,0.618837,-0.034068,0.774661,0.57973,-0.018226,0.758993,0.626355,-0.016671,0.811796,0.59533,-0.024659,0.793084,0.624091,-0.015648,0,1,0
249,'2026/05/14 11:50:42:253',2,0.760059,0.748618,-0.000001,0.705368,0.535755,-0.060389,0.698228,0.572295,-0.016131,0.701805,0.609275,-0.048567,0.736668,0.574021,-0.01391,0.732688,0.619654,-0.033913,0.774776,0.580754,-0.017332,0.759075,0.62643,-0.01615,0.812066,0.595956,-0.023166,0.793515,0.624089,-0.014499,0,1,0
250,'2026/05/14 11:50:42:292',2,0.759457,0.750403,-0.000001,0.70538,0.537278,-0.061513,0.698274,0.570201,-0.016788,0.701145,0.607107,-0.048459,0.736841,0.572096,-0.014673,0.732781,0.618239,-0.034147,0.775037,0.57951,-0.018248,0.760019,0.623981,-0.016687,0.812075,0.59551,-0.024279,0.793819,0.623612,-0.014798,0,1,0
251,'2026/05/14 11:50:42:328',2,0.761252,0.750297,-0.000001,0.705358,0.538647,-0.061248,0.698248,0.569148,-0.016822,0.701292,0.605621,-0.049618,0.736485,0.571016,-0.01527,0.732509,0.618442,-0.035121,0.774591,0.578402,-0.019145,0.759443,0.62458,-0.017025,0.811406,0.594461,-0.025335,0.792853,0.624184,-0.014375,0,1,0
252,'2026/05/14 11:50:42:358',2,0.760378,0.749294,-0.000001,0.704562,0.538134,-0.060225,0.698412,0.571728,-0.01606,0.700887,0.607355,-0.047956,0.736712,0.573256,-0.014286,0.732871,0.619424,-0.034262,0.774673,0.580175,-0.018029,0.759828,0.625388,-0.015893,0.811779,0.59591,-0.024159,0.792885,0.624823,-0.013675,0,1,0
253,'2026/05/14 11:50:42:394',2,0.760583,0.74749,-0.000001,0.703723,0.537981,-0.062063,0.697217,0.572977,-0.018883,0.700956,0.608068,-0.050215,0.735607,0.573726,-0.016461,0.732059,0.619629,-0.03605,0.773607,0.580025,-0.019423,0.758807,0.625829,-0.017866,0.810608,0.594971,-0.024771,0.792613,0.624791,-0.01642,0,1,0
254,'2026/05/14 11:50:42:420',2,0.761164,0.751082,-0.000001,0.70195,0.538771,-0.063155,0.697985,0.566657,-0.018467,0.702191,0.605975,-0.053224,0.736096,0.568934,-0.017028,0.733243,0.617022,-0.037726,0.774343,0.576779,-0.021011,0.759923,0.623834,-0.018809,0.811233,0.593367,-0.027362,0.792477,0.62423,-0.015728,0,1,0
255,'2026/05/14 11:50:42:455',2,0.758607,0.750579,-0.000001,0.702843,0.536744,-0.060253,0.697353,0.571367,-0.015567,0.701622,0.606788,-0.049429,0.735702,0.574023,-0.013658,0.731605,0.617943,-0.034322,0.773661,0.581461,-0.017459,0.758521,0.626025,-0.01658,0.810736,0.597393,-0.02366,0.792934,0.624734,-0.015141,0,1,0
256,'2026/05/14 11:50:42:491',2,0.75972,0.749176,-0.000001,0.704696,0.538301,-0.061403,0.697872,0.572724,-0.018029,0.700881,0.607631,-0.049444,0.736448,0.57424,-0.015606,0.732375,0.619483,-0.034843,0.77436,0.580892,-0.018722,0.759442,0.626116,-0.017125,0.811495,0.59617,-0.024244,0.793527,0.624962,-0.01508,0,1,0
257,'2026/05/14 11:50:42:532',2,0.759356,0.7517,-0.000001,0.704244,0.53664,-0.06259,0.697458,0.573273,-0.01739,0.701661,0.611218,-0.05144,0.736302,0.574957,-0.015042,0.732168,0.620754,-0.03553,0.774295,0.58193,-0.01852,0.758674,0.628196,-0.017851,0.811309,0.597777,-0.024485,0.792172,0.625469,-0.016644,0,1,0
258,'2026/05/14 11:50:42:565',2,0.760249,0.750872,-0.000001,0.705394,0.537337,-0.057753,0.698559,0.570708,-0.013766,0.701812,0.607084,-0.045007,0.73668,0.572527,-0.012449,0.732624,0.619655,-0.032401,0.774821,0.579919,-0.016557,0.759162,0.626363,-0.014709,0.812153,0.59631,-0.022932,0.79311,0.62451,-0.012231,0,1,0
259,'2026/05/14 11:50:42:593',2,0.760177,0.751031,-0.000001,0.705633,0.537828,-0.060429,0.697579,0.570367,-0.018613,0.702719,0.607772,-0.049848,0.736559,0.571449,-0.01637,0.732385,0.619403,-0.035339,0.774903,0.578423,-0.019506,0.759009,0.626568,-0.01742,0.812129,0.594645,-0.025009,0.79341,0.624235,-0.015621,0,1,0
260,'2026/05/14 11:50:42:622',2,0.759927,0.751285,-0.000001,0.705467,0.537868,-0.060078,0.698096,0.571615,-0.015759,0.701072,0.608438,-0.047744,0.736677,0.573583,-0.01392,0.732419,0.620273,-0.033486,0.77511,0.580899,-0.0176,0.759491,0.62664,-0.016064,0.812358,0.59661,-0.023651,0.793827,0.624651,-0.014054,0,1,0
261,'2026/05/14 11:50:42:655',2,0.759895,0.751849,-0.000001,0.704843,0.53774,-0.062245,0.699021,0.570565,-0.017251,0.701833,0.60641,-0.049974,0.737199,0.57297,-0.015197,0.733146,0.619211,-0.034732,0.775223,0.580686,-0.018782,0.76001,0.625797,-0.016993,0.812045,0.596805,-0.02479,0.793347,0.625247,-0.014831,0,1,0
262,'2026/05/14 11:50:42:689',2,0.75988,0.752114,-0.000001,0.705939,0.539152,-0.057504,0.70029,0.572179,-0.012468,0.701979,0.607238,-0.046275,0.73813,0.575295,-0.011528,0.733305,0.620212,-0.032144,0.776068,0.583194,-0.016235,0.75993,0.627644,-0.014062,0.813028,0.599418,-0.023262,0.793918,0.626828,-0.011904,0,1,0
263,'2026/05/14 11:50:42:718',2,0.76042,0.750424,-0.000001,0.70502,0.539198,-0.061488,0.698814,0.574123,-0.018015,0.701294,0.609765,-0.0482,0.737329,0.57548,-0.015578,0.732992,0.621433,-0.034287,0.775329,0.582302,-0.018616,0.759888,0.627376,-0.016817,0.81245,0.597679,-0.02404,0.79352,0.626634,-0.015245,0,1,0
264,'2026/05/14 11:50:42:751',2,0.760457,0.752509,-0.000001,0.706889,0.539403,-0.059646,0.698925,0.573909,-0.015263,0.702108,0.609402,-0.04674,0.737679,0.575719,-0.013435,0.733545,0.622032,-0.032928,0.775962,0.582842,-0.017104,0.760465,0.628859,-0.015013,0.813479,0.598842,-0.023123,0.793959,0.626338,-0.012538,0,1,0
265,'2026/05/14 11:50:42:781',2,0.760008,0.754015,-0.000001,0.703991,0.540404,-0.062451,0.69838,0.570611,-0.018747,0.703308,0.608423,-0.0516,0.737683,0.57244,-0.016485,0.734467,0.620543,-0.035389,0.776336,0.580101,-0.019905,0.760816,0.62785,-0.018044,0.813529,0.596542,-0.025819,0.793703,0.625917,-0.016343,0,1,0
266,'2026/05/14 11:50:42:814',2,0.759938,0.754472,-0.000001,0.705265,0.539803,-0.059609,0.698614,0.574992,-0.015291,0.702313,0.611139,-0.049287,0.737731,0.577468,-0.013566,0.733015,0.622074,-0.033711,0.776158,0.584873,-0.017556,0.759733,0.630207,-0.016269,0.813491,0.60087,-0.023956,0.793799,0.628527,-0.015281,0,1,0
267,'2026/05/14 11:50:42:846',2,0.760468,0.752948,-0.000001,0.70501,0.541074,-0.062502,0.699454,0.576472,-0.018306,0.703463,0.611203,-0.050816,0.738454,0.577898,-0.01613,0.734541,0.623187,-0.035525,0.776498,0.584576,-0.0196,0.760988,0.630903,-0.018021,0.813349,0.600136,-0.025558,0.79426,0.628522,-0.017498,0,1,0
268,'2026/05/14 11:50:42:878',2,0.763136,0.753061,-0.000001,0.706418,0.541251,-0.063513,0.700748,0.575271,-0.016076,0.702865,0.608952,-0.051263,0.739018,0.577027,-0.014111,0.734897,0.622395,-0.035618,0.77696,0.583672,-0.017889,0.761752,0.627907,-0.016614,0.81415,0.598846,-0.024097,0.795014,0.627639,-0.013508,0,1,0
269,'2026/05/14 11:50:42:908',2,0.761875,0.753393,-0.000001,0.706422,0.542415,-0.062866,0.700082,0.572501,-0.017823,0.702773,0.608342,-0.051396,0.738622,0.57449,-0.015892,0.734264,0.622342,-0.036656,0.776979,0.582007,-0.019514,0.761545,0.628071,-0.01807,0.814323,0.598197,-0.025545,0.795625,0.628431,-0.015629,0,1,0
270,'2026/05/14 11:50:42:942',2,0.760319,0.755113,-0.000001,0.705895,0.541013,-0.061428,0.700582,0.57257,-0.015444,0.702997,0.60881,-0.049898,0.739016,0.57558,-0.013953,0.735079,0.621615,-0.034574,0.777291,0.583511,-0.018255,0.761865,0.62795,-0.016695,0.814495,0.599706,-0.024966,0.795709,0.626976,-0.013671,0,1,0
271,'2026/05/14 11:50:42:975',2,0.760491,0.754135,-0.000001,0.706134,0.540926,-0.061081,0.69876,0.573711,-0.018677,0.702636,0.610994,-0.049783,0.737798,0.575102,-0.016646,0.733433,0.62375,-0.035828,0.776252,0.582363,-0.019929,0.760309,0.630375,-0.017965,0.813568,0.598886,-0.025568,0.794334,0.628045,-0.015902,0,1,0
272,'2026/05/14 11:50:43:009',2,0.76176,0.754919,-0.000001,0.706678,0.542281,-0.063742,0.701008,0.573851,-0.017326,0.704111,0.610768,-0.051299,0.739623,0.575869,-0.015415,0.736003,0.622963,-0.036029,0.777738,0.583124,-0.019328,0.762541,0.628807,-0.018154,0.814698,0.598809,-0.025758,0.795873,0.627689,-0.01572,0,1,0
273,'2026/05/14 11:50:43:057',2,0.761461,0.754029,-0.000001,0.707423,0.54123,-0.062102,0.700283,0.57602,-0.016338,0.702983,0.611946,-0.048796,0.739051,0.57802,-0.014615,0.735246,0.624076,-0.034859,0.777507,0.585292,-0.018522,0.761644,0.630569,-0.016989,0.814923,0.601151,-0.024838,0.795213,0.628923,-0.01498,0,1,0
274,'2026/05/14 11:50:43:096',2,0.762825,0.756882,-0.000001,0.70754,0.542178,-0.062084,0.702101,0.572216,-0.014977,0.704006,0.609147,-0.05032,0.74038,0.575007,-0.01367,0.73606,0.622878,-0.035214,0.778673,0.583159,-0.018106,0.763249,0.628837,-0.016307,0.81594,0.600178,-0.02496,0.796765,0.628537,-0.012914,0,1,0
275,'2026/05/14 11:50:43:127',2,0.760684,0.755159,-0.000001,0.707005,0.541402,-0.063495,0.700081,0.573031,-0.019352,0.703719,0.610627,-0.051925,0.739276,0.574889,-0.016965,0.735453,0.623058,-0.036779,0.778004,0.582594,-0.020202,0.762413,0.62966,-0.018672,0.815746,0.599322,-0.02594,0.796499,0.628754,-0.01657,0,1,0
276,'2026/05/14 11:50:43:158',2,0.762019,0.757469,-0.000001,0.707811,0.541667,-0.062209,0.701276,0.576042,-0.018217,0.704184,0.613889,-0.049512,0.740258,0.578399,-0.015726,0.735364,0.624379,-0.035139,0.778557,0.585992,-0.018877,0.762329,0.631518,-0.017365,0.815766,0.602544,-0.024516,0.796791,0.629813,-0.015074,0,1,0
277,'2026/05/14 11:50:43:187',2,0.761369,0.758305,-0.000001,0.7075,0.541088,-0.062821,0.700099,0.573941,-0.016094,0.704216,0.611973,-0.050934,0.739385,0.57683,-0.014101,0.734815,0.623801,-0.035289,0.778093,0.585116,-0.017927,0.762031,0.632554,-0.01692,0.815756,0.602431,-0.024216,0.796423,0.630441,-0.015038,0,1,0
278,'2026/05/14 11:50:43:219',2,0.76249,0.754499,-0.000001,0.706964,0.54333,-0.061934,0.7008,0.572036,-0.019749,0.705212,0.610159,-0.05262,0.740129,0.574276,-0.017718,0.736533,0.622761,-0.037907,0.779164,0.582113,-0.021132,0.763798,0.629893,-0.019613,0.816823,0.598941,-0.026961,0.798391,0.629668,-0.017315,0,1,0
279,'2026/05/14 11:50:43:251',2,0.763273,0.755676,-0.000001,0.705961,0.544086,-0.059969,0.701781,0.569857,-0.018471,0.705807,0.609276,-0.052941,0.740919,0.572855,-0.016957,0.737397,0.622242,-0.037002,0.779893,0.581329,-0.02082,0.764166,0.630337,-0.018189,0.817619,0.598618,-0.027092,0.797502,0.629936,-0.015812,0,1,0
280,'2026/05/14 11:50:43:282',2,0.762914,0.755465,-0.000001,0.708729,0.543657,-0.060706,0.702182,0.574369,-0.018114,0.705611,0.611706,-0.048737,0.741415,0.576364,-0.016174,0.737547,0.62325,-0.035057,0.780096,0.584393,-0.019666,0.764335,0.630356,-0.017314,0.817488,0.601418,-0.025592,0.798065,0.629533,-0.015345,0,1,0
281,'2026/05/14 11:50:43:313',2,0.76384,0.755707,-0.000001,0.708904,0.542292,-0.061844,0.702078,0.573312,-0.019469,0.706157,0.609925,-0.0522,0.741268,0.575196,-0.017138,0.738194,0.622786,-0.036442,0.779959,0.582565,-0.020456,0.764882,0.629383,-0.01887,0.817509,0.598542,-0.026265,0.798366,0.628297,-0.017056,0,1,0
282,'2026/05/14 11:50:43:345',2,0.762893,0.755318,-0.000001,0.707112,0.542866,-0.061498,0.701287,0.570904,-0.019975,0.706466,0.61022,-0.052866,0.740725,0.572833,-0.018179,0.738042,0.623542,-0.037922,0.779726,0.580866,-0.021898,0.764303,0.630385,-0.019964,0.817588,0.597981,-0.02809,0.796803,0.629815,-0.018595,0,1,0
283,'2026/05/14 11:50:43:377',2,0.763406,0.758453,-0.000001,0.706808,0.543195,-0.062345,0.702326,0.573026,-0.018005,0.705891,0.608461,-0.052108,0.741479,0.575884,-0.015845,0.737672,0.62237,-0.036152,0.780218,0.584083,-0.019426,0.764206,0.629964,-0.017811,0.817901,0.60069,-0.025531,0.79763,0.629597,-0.015404,0,1,0
284,'2026/05/14 11:50:43:409',2,0.762625,0.755897,-0.000001,0.705645,0.540974,-0.060997,0.701051,0.572724,-0.018753,0.705494,0.611813,-0.050791,0.740271,0.574818,-0.016703,0.737191,0.623298,-0.037329,0.779148,0.582511,-0.020262,0.763992,0.629765,-0.019359,0.816943,0.598968,-0.026316,0.797469,0.629638,-0.01744,0,1,0
285,'2026/05/14 11:50:43:460',2,0.763093,0.758262,-0.000001,0.706703,0.542401,-0.061191,0.700606,0.572081,-0.017047,0.704646,0.610075,-0.050471,0.74014,0.574606,-0.014855,0.73577,0.622571,-0.035549,0.779108,0.582471,-0.018404,0.762935,0.630281,-0.017258,0.816973,0.599018,-0.02446,0.796891,0.629495,-0.015291,0,1,0
286,'2026/05/14 11:50:43:486',2,0.76271,0.755283,-0.000001,0.707441,0.543356,-0.06166,0.701079,0.571763,-0.02081,0.705917,0.611264,-0.053214,0.740743,0.573656,-0.018447,0.737497,0.623778,-0.0386,0.780097,0.58155,-0.021517,0.764179,0.630613,-0.019865,0.818156,0.598453,-0.027078,0.797936,0.6303,-0.018264,0,1,0
287,'2026/05/14 11:50:43:531',2,0.763734,0.7543,-0.000001,0.708006,0.543284,-0.058526,0.70083,0.568894,-0.018172,0.705747,0.610015,-0.050825,0.740479,0.571217,-0.016272,0.737365,0.622387,-0.036581,0.779907,0.579296,-0.019746,0.764661,0.629255,-0.017422,0.818426,0.596574,-0.025654,0.798446,0.629478,-0.014926,0,1,0
288,'2026/05/14 11:50:43:568',2,0.763772,0.754883,-0.000001,0.708998,0.543391,-0.059819,0.70187,0.571794,-0.019104,0.706994,0.610476,-0.051133,0.741515,0.573369,-0.017097,0.738695,0.6236,-0.03669,0.780532,0.58111,-0.02054,0.76518,0.630716,-0.018364,0.818398,0.598074,-0.026439,0.798799,0.629769,-0.016218,0,1,0
289,'2026/05/14 11:50:43:596',2,0.763577,0.753126,-0.000001,0.708051,0.543051,-0.060754,0.701265,0.568583,-0.020969,0.705686,0.610408,-0.052223,0.741048,0.570958,-0.018652,0.73732,0.623099,-0.037903,0.780459,0.579303,-0.021595,0.764549,0.630094,-0.018996,0.818558,0.596901,-0.026997,0.798848,0.629923,-0.016984,0,1,0
290,'2026/05/14 11:50:43:627',2,0.763811,0.755126,-0.000001,0.709029,0.542913,-0.060195,0.70146,0.569981,-0.018999,0.705907,0.61134,-0.051215,0.741092,0.572595,-0.01703,0.737961,0.623609,-0.037935,0.780547,0.580704,-0.020515,0.764611,0.630554,-0.019314,0.818634,0.597654,-0.026432,0.79921,0.629971,-0.016872,0,1,0
291,'2026/05/14 11:50:43:658',2,0.765166,0.758659,-0.000001,0.710323,0.542634,-0.061155,0.70419,0.573749,-0.014886,0.705801,0.61212,-0.049714,0.743145,0.576689,-0.0135,0.739129,0.625431,-0.034811,0.781862,0.584664,-0.017881,0.766449,0.631022,-0.015762,0.819685,0.60148,-0.02475,0.800384,0.629911,-0.012635,0,1,0
292,'2026/05/14 11:50:43:691',2,0.765744,0.754916,-0.000001,0.709988,0.542363,-0.06442,0.704404,0.571553,-0.018176,0.706823,0.610637,-0.05259,0.743634,0.574287,-0.016043,0.739306,0.623304,-0.037392,0.782531,0.582218,-0.019662,0.766345,0.628549,-0.018531,0.820305,0.59856,-0.025809,0.800038,0.629102,-0.015902,0,1,0
293,'2026/05/14 11:50:43:721',2,0.765207,0.756868,-0.000001,0.710176,0.542092,-0.062256,0.703426,0.574627,-0.01763,0.705937,0.6124,-0.050178,0.742885,0.576807,-0.015714,0.738356,0.62411,-0.035414,0.781792,0.5845,-0.019514,0.766066,0.630209,-0.017371,0.819602,0.601224,-0.025834,0.800041,0.630479,-0.015984,0,1,0
294,'2026/05/14 11:50:43:748',2,0.766702,0.756878,-0.000001,0.710487,0.541805,-0.059737,0.703228,0.574439,-0.015976,0.705938,0.609945,-0.04815,0.742556,0.576462,-0.013913,0.738242,0.623652,-0.034154,0.78139,0.583878,-0.017474,0.765936,0.629697,-0.015815,0.819413,0.600187,-0.023465,0.800449,0.629783,-0.013884,0,1,0
295,'2026/05/14 11:50:43:781',2,0.765619,0.756397,-0.000001,0.710246,0.542803,-0.06411,0.70471,0.573567,-0.017026,0.70714,0.609791,-0.0524,0.743854,0.576644,-0.014911,0.740156,0.623438,-0.036543,0.782625,0.584561,-0.018713,0.766803,0.629557,-0.01803,0.820391,0.600651,-0.025024,0.799896,0.630185,-0.015381,0,1,0
296,'2026/05/14 11:50:43:815',2,0.765138,0.75595,-0.000001,0.708143,0.54328,-0.06243,0.702776,0.573474,-0.018867,0.705978,0.61029,-0.052002,0.742323,0.575813,-0.01669,0.738435,0.623268,-0.036792,0.781537,0.583706,-0.02009,0.765772,0.630168,-0.018217,0.819543,0.600308,-0.025983,0.799776,0.630135,-0.015919,0,1,0
297,'2026/05/14 11:50:43:853',2,0.766936,0.75684,-0.000001,0.710173,0.542559,-0.062177,0.705173,0.574329,-0.015324,0.706801,0.611324,-0.048917,0.744137,0.576791,-0.01338,0.739582,0.625159,-0.034672,0.782736,0.58461,-0.01722,0.766777,0.630279,-0.01562,0.820442,0.601259,-0.023552,0.799999,0.630307,-0.012237,0,1,0
298,'2026/05/14 11:50:43:895',2,0.765405,0.756484,-0.000001,0.708672,0.543512,-0.064738,0.703915,0.57284,-0.01943,0.706553,0.610861,-0.054186,0.743079,0.575629,-0.017191,0.738953,0.623856,-0.038075,0.781945,0.583573,-0.020682,0.766429,0.629865,-0.019124,0.819758,0.599959,-0.026731,0.800239,0.629446,-0.016702,0,1,0
299,'2026/05/14 11:50:43:922',2,0.765503,0.756487,-0.000001,0.710572,0.542884,-0.062796,0.704564,0.573655,-0.017141,0.70659,0.611211,-0.050702,0.743774,0.57647,-0.014971,0.738794,0.623933,-0.036027,0.782725,0.584419,-0.018514,0.766565,0.629455,-0.016881,0.820583,0.600725,-0.024566,0.801142,0.629333,-0.014104,0,1,0
300,'2026/05/14 11:50:43:954',2,0.766367,0.75512,-0.000001,0.712214,0.542441,-0.063285,0.704522,0.574399,-0.017405,0.706398,0.613079,-0.05054,0.744097,0.576556,-0.015101,0.73978,0.625463,-0.036224,0.782818,0.583972,-0.018616,0.766876,0.631236,-0.018392,0.820497,0.600051,-0.024604,0.800829,0.63094,-0.016168,0,1,0
301,'2026/05/14 11:50:43:985',2,0.765624,0.756917,-0.000001,0.709394,0.54166,-0.062601,0.703409,0.573833,-0.019176,0.706009,0.610644,-0.049635,0.743296,0.576316,-0.016175,0.738543,0.623398,-0.035147,0.782499,0.584324,-0.018787,0.766522,0.629455,-0.017275,0.8205,0.600779,-0.023911,0.801084,0.629445,-0.014967,0,1,0
302,'2026/05/14 11:50:44:018',2,0.766613,0.754869,-0.000001,0.709312,0.541658,-0.062826,0.704722,0.569642,-0.017254,0.707295,0.609128,-0.05177,0.743994,0.572622,-0.015286,0.739747,0.622424,-0.036671,0.783045,0.580792,-0.018971,0.767118,0.628601,-0.017028,0.820882,0.597618,-0.025151,0.801469,0.628334,-0.013608,0,1,0
303,'2026/05/14 11:50:44:049',2,0.764311,0.756899,-0.000001,0.709203,0.539689,-0.062503,0.702864,0.572313,-0.016267,0.705963,0.609898,-0.050784,0.74214,0.575673,-0.014047,0.737609,0.622102,-0.034881,0.781148,0.583817,-0.017814,0.765149,0.630162,-0.017167,0.81922,0.600203,-0.024108,0.800211,0.629783,-0.015384,0,1,0
304,'2026/05/14 11:50:44:079',2,0.764446,0.755485,-0.000001,0.708553,0.541086,-0.064162,0.703471,0.571728,-0.019854,0.707269,0.60877,-0.05292,0.743185,0.573777,-0.017643,0.739585,0.622093,-0.037314,0.78225,0.581615,-0.021131,0.766617,0.628797,-0.019611,0.819977,0.598421,-0.027125,0.800296,0.628355,-0.017518,0,1,0
305,'2026/05/14 11:50:44:111',2,0.764456,0.754718,-0.000001,0.710364,0.539986,-0.062334,0.702821,0.574012,-0.017592,0.705732,0.610364,-0.050971,0.742556,0.576695,-0.015301,0.737091,0.622856,-0.034949,0.781364,0.584362,-0.018829,0.764813,0.63017,-0.016501,0.819109,0.600708,-0.024927,0.799314,0.629343,-0.015338,0,1,0
306,'2026/05/14 11:50:44:154',2,0.764958,0.755591,-0.000001,0.709113,0.538481,-0.063741,0.702551,0.570092,-0.017755,0.705047,0.608115,-0.051922,0.741888,0.572683,-0.015513,0.73758,0.621463,-0.035988,0.780798,0.580918,-0.019086,0.765211,0.62765,-0.0169,0.818921,0.598187,-0.025239,0.798828,0.627703,-0.014672,0,1,0
307,'2026/05/14 11:50:44:192',2,0.764466,0.75398,-0.000001,0.708126,0.538788,-0.061083,0.703068,0.571393,-0.015211,0.705029,0.607561,-0.048138,0.742125,0.5744,-0.013031,0.736916,0.62127,-0.033227,0.780841,0.58223,-0.016632,0.764505,0.628157,-0.014939,0.818822,0.598593,-0.022675,0.798857,0.627318,-0.012247,0,1,0
308,'2026/05/14 11:50:44:227',2,0.765222,0.752783,-0.000001,0.707943,0.539283,-0.063157,0.703171,0.569201,-0.01569,0.704837,0.606615,-0.050602,0.742039,0.572137,-0.014255,0.737405,0.620717,-0.036256,0.780709,0.580418,-0.018507,0.764683,0.627037,-0.016763,0.818447,0.597685,-0.025206,0.798215,0.627566,-0.013423,0,1,0
309,'2026/05/14 11:50:44:254',2,0.764914,0.75153,-0.000001,0.708066,0.540245,-0.063526,0.702441,0.570235,-0.018251,0.704561,0.606923,-0.053681,0.7416,0.57313,-0.016404,0.737397,0.621201,-0.038212,0.780497,0.580777,-0.020226,0.764744,0.626785,-0.018932,0.818482,0.596689,-0.02654,0.79823,0.627147,-0.016673,0,1,0
310,'2026/05/14 11:50:44:288',2,0.76462,0.752349,-0.000001,0.707906,0.539421,-0.063547,0.704196,0.567823,-0.015726,0.705891,0.606148,-0.053096,0.743001,0.571567,-0.014156,0.738646,0.620334,-0.037275,0.781664,0.580034,-0.018405,0.765508,0.625977,-0.017429,0.819479,0.596848,-0.025135,0.798982,0.625949,-0.01321,0,1,0
311,'2026/05/14 11:50:44:319',2,0.763165,0.754008,-0.000001,0.707722,0.538016,-0.061544,0.703339,0.567799,-0.015644,0.704943,0.60565,-0.051282,0.741921,0.571567,-0.014426,0.737885,0.620704,-0.035648,0.780707,0.580159,-0.018943,0.765084,0.626206,-0.016639,0.818501,0.596917,-0.025927,0.798241,0.6264,-0.013576,0,1,0
312,'2026/05/14 11:50:44:351',2,0.762568,0.751508,-0.000001,0.705537,0.539213,-0.062123,0.701717,0.56697,-0.019254,0.704664,0.605443,-0.05275,0.740694,0.570477,-0.017295,0.737254,0.61863,-0.037934,0.779694,0.578877,-0.020856,0.764507,0.625219,-0.019376,0.81765,0.595493,-0.026872,0.798375,0.625834,-0.016632,0,1,0
313,'2026/05/14 11:50:44:382',2,0.762312,0.752523,-0.000001,0.707483,0.5388,-0.063024,0.701445,0.569711,-0.017657,0.704544,0.607305,-0.050999,0.740852,0.572111,-0.016033,0.73705,0.620151,-0.036098,0.779721,0.580087,-0.020175,0.76371,0.626645,-0.018581,0.817384,0.59666,-0.026787,0.7969,0.625698,-0.016351,0,1,0
314,'2026/05/14 11:50:44:415',2,0.762664,0.755327,-0.000001,0.706497,0.538959,-0.061375,0.703007,0.568105,-0.013495,0.705053,0.604775,-0.049263,0.741387,0.571759,-0.012675,0.737137,0.619265,-0.03433,0.780052,0.58034,-0.017588,0.763428,0.625293,-0.015778,0.81775,0.597129,-0.024878,0.796765,0.6251,-0.01199,0,1,0
315,'2026/05/14 11:50:44:447',2,0.761451,0.747967,-0.000001,0.70579,0.538624,-0.061585,0.699916,0.565475,-0.018919,0.703901,0.605799,-0.0533,0.739098,0.568727,-0.017596,0.735525,0.619605,-0.039439,0.778166,0.577063,-0.021614,0.762881,0.626426,-0.019261,0.816531,0.594219,-0.028013,0.796851,0.626297,-0.016315,0,1,0
316,'2026/05/14 11:50:44:490',2,0.761167,0.749055,-0.000001,0.705019,0.5395,-0.060872,0.700929,0.564222,-0.018147,0.703893,0.603907,-0.053208,0.740141,0.567456,-0.016895,0.736176,0.617912,-0.037352,0.779216,0.576167,-0.021079,0.763024,0.624796,-0.018859,0.817161,0.593748,-0.027694,0.796422,0.625196,-0.016821,0,1,0
317,'2026/05/14 11:50:44:520',2,0.760659,0.751436,-0.000001,0.707179,0.537379,-0.063242,0.700342,0.568757,-0.018258,0.702964,0.605756,-0.051634,0.739669,0.571497,-0.016416,0.735235,0.618926,-0.036313,0.778546,0.579865,-0.020237,0.762665,0.625166,-0.018055,0.816138,0.59696,-0.026517,0.796645,0.625473,-0.015934,0,1,0
318,'2026/05/14 11:50:44:551',2,0.762612,0.749355,-0.000001,0.705575,0.538529,-0.062206,0.702559,0.566069,-0.015778,0.704236,0.602837,-0.052243,0.741194,0.569917,-0.014521,0.736406,0.618054,-0.036561,0.779787,0.578396,-0.018935,0.763532,0.623727,-0.017428,0.817615,0.595111,-0.025759,0.796607,0.624529,-0.013853,0,1,0
319,'2026/05/14 11:50:44:584',2,0.762547,0.751111,-0.000001,0.705773,0.537454,-0.06336,0.702081,0.565082,-0.014821,0.704729,0.603623,-0.05276,0.74056,0.568723,-0.014143,0.736865,0.618305,-0.036734,0.779152,0.577495,-0.019185,0.76351,0.625,-0.017524,0.816688,0.595007,-0.02661,0.796265,0.625237,-0.013775,0,1,0
320,'2026/05/14 11:50:44:613',2,0.761007,0.75174,-0.000001,0.706505,0.537174,-0.063166,0.7006,0.566429,-0.017288,0.702885,0.604654,-0.052426,0.739641,0.569752,-0.015583,0.735507,0.618416,-0.036534,0.778312,0.578213,-0.019617,0.762724,0.624269,-0.01741,0.816161,0.595254,-0.026157,0.796054,0.62413,-0.014382,0,1,0
321,'2026/05/14 11:50:44:674',2,0.759496,0.748889,-0.000001,0.706344,0.537278,-0.064289,0.699442,0.563132,-0.020508,0.702814,0.602851,-0.053078,0.738887,0.565998,-0.018758,0.734372,0.61716,-0.039087,0.777919,0.574841,-0.022379,0.761509,0.623953,-0.020439,0.815673,0.59286,-0.028376,0.795231,0.624393,-0.017705,0,1,0
322,'2026/05/14 11:50:44:707',2,0.760732,0.750083,-0.000001,0.707523,0.537671,-0.065606,0.700564,0.566106,-0.020076,0.703167,0.603357,-0.054438,0.739658,0.568935,-0.018067,0.736028,0.618574,-0.038657,0.778427,0.57736,-0.021714,0.762852,0.623917,-0.020365,0.816096,0.594412,-0.027804,0.796139,0.623853,-0.01784,0,1,0
323,'2026/05/14 11:50:44:739',2,0.760566,0.75114,-0.000001,0.703895,0.535982,-0.064046,0.701528,0.565854,-0.015263,0.703265,0.603225,-0.05158,0.739827,0.569418,-0.013998,0.735194,0.617646,-0.036449,0.778269,0.578129,-0.018516,0.762269,0.623392,-0.016775,0.815824,0.595381,-0.025514,0.795462,0.623835,-0.012832,0,1,0
324,'2026/05/14 11:50:44:769',2,0.762066,0.749139,-0.000001,0.7044,0.536158,-0.063997,0.702954,0.563797,-0.016434,0.704258,0.603304,-0.052446,0.74102,0.567579,-0.015876,0.736789,0.616804,-0.038369,0.77937,0.576338,-0.02096,0.763403,0.622675,-0.019156,0.816961,0.593487,-0.028457,0.795868,0.623171,-0.015818,0,1,0
325,'2026/05/14 11:50:44:802',2,0.763026,0.750298,-0.000001,0.70715,0.537529,-0.062481,0.702428,0.565656,-0.015188,0.703813,0.601481,-0.051911,0.741259,0.569086,-0.013679,0.736824,0.617424,-0.035433,0.779743,0.577328,-0.017983,0.763801,0.622787,-0.015823,0.817563,0.594051,-0.024791,0.796576,0.623234,-0.012689,0,1,0
326,'2026/05/14 11:50:44:832',2,0.761944,0.750952,-0.000001,0.704996,0.535662,-0.063504,0.701955,0.564029,-0.015896,0.703669,0.60298,-0.051978,0.740235,0.567936,-0.014853,0.735789,0.616421,-0.036806,0.77873,0.576781,-0.019483,0.763126,0.622608,-0.017584,0.816343,0.594098,-0.026543,0.797057,0.622964,-0.014007,0,1,0
327,'2026/05/14 11:50:44:863',2,0.761874,0.748404,-0.000001,0.704189,0.535304,-0.060866,0.700455,0.561365,-0.016627,0.703453,0.602009,-0.05038,0.739386,0.565356,-0.015482,0.735696,0.615393,-0.036626,0.778554,0.574406,-0.019814,0.762938,0.622285,-0.018035,0.816672,0.591853,-0.026523,0.796746,0.623057,-0.014736,0,1,0
328,'2026/05/14 11:50:44:895',2,0.761527,0.748992,-0.000001,0.708006,0.535365,-0.062924,0.700637,0.565051,-0.01937,0.704126,0.602043,-0.053004,0.740267,0.567832,-0.017055,0.735686,0.617276,-0.03785,0.779278,0.576355,-0.020324,0.762982,0.623783,-0.018941,0.817179,0.593731,-0.026066,0.797155,0.624422,-0.016718,0,1,0
329,'2026/05/14 11:50:44:925',2,0.763026,0.750843,-0.000001,0.70684,0.536349,-0.062049,0.703577,0.563105,-0.017609,0.706013,0.603093,-0.051974,0.742385,0.567167,-0.016185,0.738455,0.6169,-0.03677,0.781137,0.576364,-0.020343,0.765287,0.62312,-0.017849,0.818802,0.594054,-0.02699,0.79821,0.6235,-0.015269,0,1,0
330,'2026/05/14 11:50:44:962',2,0.762285,0.75164,-0.000001,0.708411,0.537469,-0.063483,0.702877,0.565089,-0.017151,0.705544,0.602753,-0.053896,0.741982,0.569221,-0.015385,0.73728,0.616834,-0.037453,0.780759,0.57847,-0.019421,0.7641,0.624328,-0.0187,0.81852,0.596095,-0.025967,0.798019,0.624572,-0.015643,0,1,0
331,'2026/05/14 11:50:44:986',2,0.762932,0.751606,-0.000001,0.71024,0.538366,-0.063051,0.703589,0.566115,-0.016699,0.704589,0.60381,-0.052535,0.742756,0.569937,-0.014946,0.737686,0.618844,-0.036732,0.781469,0.578973,-0.018962,0.764971,0.625076,-0.017379,0.819076,0.596445,-0.025487,0.798727,0.625411,-0.014932,0,1,0
332,'2026/05/14 11:50:45:025',2,0.761987,0.752934,-0.000001,0.708373,0.536926,-0.064078,0.704057,0.566074,-0.016644,0.705224,0.605061,-0.052456,0.742677,0.570034,-0.015059,0.738176,0.618131,-0.03642,0.781349,0.579077,-0.019289,0.765388,0.624214,-0.017733,0.818942,0.596275,-0.026013,0.798779,0.624743,-0.014345,0,1,0
333,'2026/05/14 11:50:45:053',2,0.761261,0.750337,-0.000001,0.710675,0.537188,-0.065807,0.703674,0.565549,-0.020659,0.704794,0.604442,-0.055026,0.742801,0.569579,-0.018361,0.737611,0.618352,-0.039565,0.781537,0.578945,-0.021797,0.76493,0.624678,-0.020748,0.818934,0.59681,-0.027769,0.798923,0.626091,-0.018116,0,1,0
334,'2026/05/14 11:50:45:093',2,0.76313,0.751273,-0.000001,0.70928,0.538006,-0.061544,0.70583,0.56385,-0.015446,0.706556,0.603725,-0.051077,0.744491,0.568483,-0.014119,0.739567,0.618193,-0.035593,0.783132,0.578076,-0.018568,0.766279,0.624263,-0.017482,0.820526,0.595675,-0.025428,0.799243,0.624635,-0.014113,0,1,0
335,'2026/05/14 11:50:45:129',2,0.763224,0.751477,-0.000001,0.708625,0.537195,-0.060323,0.7036,0.564544,-0.016883,0.70583,0.605279,-0.048879,0.742737,0.568117,-0.015326,0.738302,0.617919,-0.035231,0.781794,0.577154,-0.019272,0.765622,0.624533,-0.017213,0.819757,0.594711,-0.025647,0.799807,0.624234,-0.014349,0,1,0
336,'2026/05/14 11:50:45:158',2,0.762678,0.751096,-0.000001,0.710801,0.537542,-0.060809,0.702999,0.568837,-0.018902,0.706138,0.606261,-0.050342,0.742361,0.571165,-0.016393,0.738214,0.619303,-0.035448,0.781196,0.579587,-0.019412,0.764819,0.626547,-0.017163,0.818836,0.597065,-0.02496,0.798071,0.625677,-0.015799,0,1,0
337,'2026/05/14 11:50:45:190',2,0.761682,0.752274,-0.000001,0.708922,0.53528,-0.06287,0.70254,0.56882,-0.018988,0.705469,0.607195,-0.051344,0.742074,0.57162,-0.01658,0.737723,0.619205,-0.035858,0.78121,0.579988,-0.019873,0.765071,0.626175,-0.018208,0.818993,0.597039,-0.025655,0.798776,0.625724,-0.016182,0,1,0
338,'2026/05/14 11:50:45:221',2,0.761583,0.751828,-0.000001,0.709871,0.536781,-0.062072,0.701872,0.564083,-0.019854,0.705805,0.605934,-0.051919,0.741763,0.567602,-0.017343,0.738017,0.618136,-0.037521,0.781255,0.57677,-0.020445,0.764798,0.624813,-0.020043,0.81915,0.594502,-0.02604,0.798851,0.625531,-0.017983,0,1,0
339,'2026/05/14 11:50:45:255',2,0.762619,0.752065,-0.000001,0.709413,0.537787,-0.064503,0.705708,0.5641,-0.016893,0.706768,0.603244,-0.053747,0.744284,0.56882,-0.015253,0.739734,0.618304,-0.037385,0.782815,0.578392,-0.019541,0.766762,0.624143,-0.017858,0.820549,0.596132,-0.026424,0.799808,0.62492,-0.014703,0,1,0
340,'2026/05/14 11:50:45:285',2,0.763478,0.751939,-0.000001,0.711563,0.538599,-0.063879,0.705081,0.56603,-0.017353,0.706966,0.605978,-0.052546,0.743958,0.570114,-0.015457,0.73976,0.620356,-0.037291,0.782485,0.579298,-0.019433,0.766404,0.625686,-0.018612,0.820247,0.596946,-0.025939,0.799397,0.625987,-0.015559,0,1,0
341,'2026/05/14 11:50:45:315',2,0.762993,0.75494,-0.000001,0.710694,0.537741,-0.065268,0.703817,0.568165,-0.017674,0.705502,0.607778,-0.052465,0.743269,0.57154,-0.015117,0.738342,0.619403,-0.036137,0.782088,0.580607,-0.018566,0.765911,0.625684,-0.01725,0.819524,0.598192,-0.024631,0.799672,0.626653,-0.014207,0,1,0
342,'2026/05/14 11:50:45:346',2,0.761805,0.754266,-0.000001,0.709156,0.536961,-0.064801,0.703686,0.569632,-0.019413,0.705779,0.605799,-0.052132,0.742795,0.573154,-0.016837,0.737623,0.619519,-0.03656,0.781601,0.582024,-0.020058,0.764989,0.627178,-0.01948,0.819152,0.599228,-0.025782,0.799711,0.627127,-0.01762,0,1,0
343,'2026/05/14 11:50:45:380',2,0.762668,0.753306,-0.000001,0.711488,0.538799,-0.063645,0.704759,0.567725,-0.016876,0.705761,0.606417,-0.050611,0.743939,0.57189,-0.014749,0.739008,0.620363,-0.035979,0.782583,0.58112,-0.018519,0.765935,0.626009,-0.017455,0.820142,0.59857,-0.024839,0.799239,0.627465,-0.0142,0,1,0
344,'2026/05/14 11:50:45:409',2,0.763168,0.753525,-0.000001,0.711324,0.538303,-0.063463,0.703678,0.567246,-0.019641,0.706394,0.609224,-0.053537,0.743524,0.570252,-0.017242,0.739069,0.621097,-0.03764,0.782629,0.579068,-0.02074,0.766102,0.627109,-0.020339,0.820233,0.596646,-0.026839,0.799802,0.627314,-0.018895,0,1,0
345,'2026/05/14 11:50:45:453',2,0.761983,0.752306,-0.000001,0.709875,0.538694,-0.061775,0.70233,0.565866,-0.021312,0.706011,0.606226,-0.053371,0.742367,0.569315,-0.019053,0.738095,0.619877,-0.038349,0.781894,0.578389,-0.022292,0.76523,0.626798,-0.020834,0.819882,0.596016,-0.028011,0.79888,0.628005,-0.019252,0,1,0
346,'2026/05/14 11:50:45:488',2,0.763363,0.7572,-0.000001,0.709616,0.537337,-0.062484,0.703835,0.570579,-0.015701,0.705548,0.608877,-0.050849,0.742967,0.573903,-0.013294,0.736756,0.621229,-0.034707,0.781623,0.582625,-0.016885,0.764341,0.628905,-0.016083,0.819304,0.600045,-0.023029,0.799376,0.62843,-0.012909,0,1,0
347,'2026/05/14 11:50:45:519',2,0.761629,0.756933,-0.000001,0.709741,0.538865,-0.062979,0.703709,0.570912,-0.019248,0.705692,0.60881,-0.052634,0.742846,0.574665,-0.01684,0.737753,0.621928,-0.036605,0.781479,0.583736,-0.020176,0.765147,0.629423,-0.018273,0.819173,0.601455,-0.026059,0.799082,0.629292,-0.01584,0,1,0
348,'2026/05/14 11:50:45:553',2,0.760941,0.755961,-0.000001,0.711176,0.538357,-0.063529,0.702916,0.571675,-0.017126,0.704909,0.608669,-0.051166,0.742296,0.575742,-0.014986,0.736908,0.623008,-0.035981,0.781278,0.584747,-0.018697,0.764332,0.630818,-0.017878,0.819205,0.602004,-0.024864,0.799242,0.630462,-0.015461,0,1,0
349,'2026/05/14 11:50:45:583',2,0.762307,0.756928,-0.000001,0.709466,0.53919,-0.067928,0.703525,0.568091,-0.019781,0.705819,0.607696,-0.05635,0.742875,0.572449,-0.017326,0.738547,0.621736,-0.040111,0.781886,0.582135,-0.020773,0.765829,0.628108,-0.020351,0.819643,0.600273,-0.026816,0.799683,0.629087,-0.016681,0,1,0
350,'2026/05/14 11:50:45:616',2,0.761255,0.758329,-0.000001,0.711291,0.539047,-0.066229,0.702843,0.567921,-0.016151,0.704881,0.606315,-0.053796,0.742378,0.57278,-0.014572,0.73675,0.621315,-0.037672,0.781504,0.583124,-0.019033,0.764506,0.629692,-0.018186,0.819455,0.602271,-0.026022,0.799047,0.631028,-0.015335,0,1,0
351,'2026/05/14 11:50:45:647',2,0.761614,0.756851,-0.000001,0.710216,0.53852,-0.064257,0.703931,0.572007,-0.018539,0.705778,0.609481,-0.051354,0.743209,0.575423,-0.01625,0.737886,0.622866,-0.036505,0.781968,0.584279,-0.019747,0.76506,0.630167,-0.018267,0.819686,0.601685,-0.025804,0.799092,0.629679,-0.016083,0,1,0
352,'2026/05/14 11:50:45:679',2,0.761237,0.757181,-0.000001,0.70888,0.540554,-0.063237,0.703596,0.57112,-0.017355,0.705704,0.60858,-0.051588,0.743151,0.574919,-0.015299,0.738129,0.621924,-0.036063,0.782061,0.584112,-0.01931,0.764977,0.630049,-0.018906,0.819942,0.601741,-0.025882,0.799013,0.629873,-0.016997,0,1,0
353,'2026/05/14 11:50:45:710',2,0.762412,0.756427,-0.000001,0.710782,0.539147,-0.064292,0.702493,0.570294,-0.021586,0.705886,0.609671,-0.055209,0.742446,0.573168,-0.018764,0.738004,0.62351,-0.039058,0.781736,0.581917,-0.021511,0.765643,0.629406,-0.019769,0.819544,0.59963,-0.026785,0.8003,0.629515,-0.017516,0,1,0
354,'2026/05/14 11:50:45:741',2,0.763174,0.755227,-0.000001,0.709825,0.539304,-0.06145,0.702485,0.569445,-0.019452,0.706474,0.609004,-0.052292,0.742568,0.572266,-0.017124,0.73931,0.622274,-0.037802,0.781985,0.581102,-0.020416,0.766117,0.628557,-0.01919,0.820169,0.598785,-0.026208,0.799667,0.629615,-0.017011,0,1,0
355,'2026/05/14 11:50:45:774',2,0.762013,0.757376,-0.000001,0.711007,0.538957,-0.065906,0.704138,0.570297,-0.018599,0.7054,0.608896,-0.052889,0.743681,0.573776,-0.016206,0.738335,0.62294,-0.037026,0.782674,0.582866,-0.019613,0.766041,0.629002,-0.017444,0.820387,0.600967,-0.025598,0.800227,0.628961,-0.013943,0,1,0
356,'2026/05/14 11:50:45:806',2,0.761351,0.758145,-0.000001,0.709544,0.539567,-0.064245,0.702701,0.571563,-0.017753,0.704921,0.609798,-0.052507,0.742051,0.575077,-0.015479,0.736163,0.621781,-0.03604,0.781123,0.584305,-0.018967,0.76392,0.630559,-0.016874,0.818994,0.602466,-0.025003,0.799384,0.630374,-0.014093,0,1,0
357,'2026/05/14 11:50:45:856',2,0.761564,0.757863,-0.000001,0.70955,0.539246,-0.064174,0.702907,0.57275,-0.018397,0.705557,0.609403,-0.05158,0.742663,0.575448,-0.016125,0.737933,0.622751,-0.03606,0.781612,0.584012,-0.019771,0.765058,0.630453,-0.018581,0.819479,0.601374,-0.025967,0.798752,0.629524,-0.016877,0,1,0
358,'2026/05/14 11:50:45:897',2,0.760759,0.756294,-0.000001,0.70966,0.538027,-0.063845,0.702056,0.571559,-0.019944,0.704795,0.610598,-0.050855,0.741887,0.575053,-0.01751,0.736081,0.623084,-0.036079,0.781041,0.584198,-0.020811,0.763614,0.631499,-0.018747,0.818802,0.602244,-0.026629,0.798276,0.630776,-0.01793,0,1,0
359,'2026/05/14 11:50:45:927',2,0.762021,0.758153,-0.000001,0.710628,0.5406,-0.060969,0.703867,0.570763,-0.015371,0.706479,0.608864,-0.051802,0.743492,0.574532,-0.013738,0.738764,0.623289,-0.03544,0.782551,0.583495,-0.018108,0.7654,0.630984,-0.017414,0.820563,0.601029,-0.025003,0.799341,0.629932,-0.015156,0,1,0
360,'2026/05/14 11:50:45:957',2,0.763527,0.757567,-0.000001,0.71124,0.540256,-0.063368,0.704582,0.570845,-0.017405,0.706184,0.608279,-0.052832,0.743907,0.574799,-0.015107,0.739168,0.622595,-0.036598,0.783032,0.58402,-0.01861,0.766729,0.628775,-0.017751,0.820813,0.601476,-0.024619,0.801384,0.630342,-0.014032,0,1,0
361,'2026/05/14 11:50:45:989',2,0.762809,0.757655,-0.000001,0.711597,0.540007,-0.063854,0.704965,0.570563,-0.018647,0.705917,0.609666,-0.051389,0.744513,0.574669,-0.016576,0.739243,0.62319,-0.037036,0.783597,0.584057,-0.020245,0.766618,0.629274,-0.018795,0.821296,0.601796,-0.026416,0.800906,0.630533,-0.016088,0,1,0
362,'2026/05/14 11:50:46:017',2,0.763311,0.756458,-0.000001,0.709603,0.540441,-0.068061,0.707322,0.568583,-0.019457,0.707911,0.609306,-0.056684,0.745993,0.573678,-0.017703,0.740999,0.623027,-0.040466,0.784622,0.583705,-0.021849,0.76815,0.629504,-0.021584,0.821853,0.601555,-0.028524,0.801579,0.630728,-0.017978,0,1,0
363,'2026/05/14 11:50:46:048',2,0.764338,0.756389,-0.000001,0.711695,0.540906,-0.064879,0.705135,0.569354,-0.019743,0.706411,0.60893,-0.053513,0.74493,0.573585,-0.017356,0.739923,0.622744,-0.037767,0.784292,0.583049,-0.020823,0.767508,0.62931,-0.019999,0.822266,0.600585,-0.026816,0.801564,0.631363,-0.018013,0,1,0
364,'2026/05/14 11:50:46:080',2,0.764567,0.756403,-0.000001,0.713553,0.54195,-0.06174,0.706055,0.569037,-0.018053,0.70813,0.609009,-0.053596,0.745372,0.573031,-0.015936,0.740996,0.62357,-0.03743,0.784482,0.582473,-0.019562,0.768175,0.629398,-0.01852,0.822663,0.600386,-0.025716,0.802279,0.6302,-0.015855,0,1,0
365,'2026/05/14 11:50:46:111',2,0.763185,0.757724,-0.000001,0.711629,0.541404,-0.063854,0.705399,0.568946,-0.019296,0.707574,0.609806,-0.052315,0.744875,0.572778,-0.017532,0.740238,0.623583,-0.038075,0.784206,0.582355,-0.021426,0.767164,0.630032,-0.020371,0.82192,0.600489,-0.027812,0.801234,0.63079,-0.018217,0,1,0
366,'2026/05/14 11:50:46:149',2,0.763953,0.757773,-0.000001,0.711602,0.540646,-0.060186,0.70459,0.571182,-0.01639,0.707085,0.6095,-0.04916,0.744158,0.574569,-0.014352,0.73963,0.623272,-0.035247,0.783238,0.583637,-0.018027,0.766581,0.629829,-0.01718,0.821186,0.601344,-0.024176,0.800812,0.631245,-0.014379,0,1,0
367,'2026/05/14 11:50:46:173',2,0.764608,0.755117,-0.000001,0.711656,0.541195,-0.062247,0.707616,0.566294,-0.016708,0.708736,0.609745,-0.05241,0.746405,0.570768,-0.015508,0.741395,0.623271,-0.037309,0.785198,0.580685,-0.02,0.768302,0.629372,-0.017729,0.823004,0.599593,-0.027003,0.801152,0.629509,-0.01453,0,1,0
368,'2026/05/14 11:50:46:209',2,0.764169,0.757846,-0.000001,0.710196,0.540457,-0.065249,0.706721,0.567602,-0.017912,0.707735,0.606705,-0.054669,0.745656,0.572987,-0.016349,0.740867,0.62117,-0.038325,0.784622,0.583006,-0.020675,0.768392,0.628404,-0.019915,0.822151,0.600562,-0.02748,0.802034,0.630459,-0.016579,0,1,0
369,'2026/05/14 11:50:46:267',2,0.763945,0.757248,-0.000001,0.711383,0.54101,-0.063207,0.705004,0.568245,-0.019372,0.707259,0.607011,-0.053687,0.744733,0.572422,-0.017208,0.740213,0.621964,-0.038034,0.784154,0.582216,-0.020757,0.767448,0.629019,-0.019991,0.822113,0.600168,-0.026793,0.801669,0.630371,-0.017512,0,1,0
370,'2026/05/14 11:50:46:298',2,0.763101,0.755892,-0.000001,0.711477,0.541084,-0.064223,0.705734,0.565341,-0.020876,0.707492,0.607999,-0.0534,0.745623,0.569906,-0.018651,0.741035,0.622623,-0.038282,0.7853,0.580439,-0.022046,0.768306,0.629019,-0.020893,0.823249,0.599056,-0.027946,0.802134,0.629886,-0.018774,0,1,0
371,'2026/05/14 11:50:46:332',2,0.765441,0.758049,-0.000001,0.713973,0.541665,-0.061813,0.70781,0.570675,-0.015513,0.707769,0.610406,-0.051234,0.74703,0.575106,-0.013476,0.741346,0.62408,-0.034963,0.785925,0.584476,-0.017379,0.768721,0.629925,-0.016187,0.823584,0.601943,-0.023826,0.802558,0.630355,-0.012879,0,1,0
372,'2026/05/14 11:50:46:361',2,0.763328,0.754924,-0.000001,0.711869,0.541237,-0.063453,0.705699,0.568038,-0.020095,0.708236,0.608088,-0.053496,0.745553,0.572231,-0.017312,0.740661,0.621696,-0.038659,0.785131,0.582023,-0.020244,0.76836,0.628376,-0.02022,0.823336,0.59996,-0.025728,0.803097,0.630321,-0.017361,0,1,0
373,'2026/05/14 11:50:46:397',2,0.764234,0.758904,-0.000001,0.712492,0.53937,-0.064937,0.708818,0.566907,-0.017549,0.708865,0.608255,-0.053462,0.747864,0.572295,-0.016456,0.742612,0.623735,-0.038978,0.787143,0.582852,-0.021176,0.770005,0.630594,-0.020688,0.824765,0.60145,-0.028334,0.803334,0.631588,-0.01737,0,1,0
374,'2026/05/14 11:50:46:424',2,0.765113,0.760266,-0.000001,0.714042,0.541499,-0.064529,0.70857,0.570205,-0.016946,0.709231,0.608487,-0.053334,0.747572,0.57542,-0.01513,0.742228,0.623313,-0.03705,0.7866,0.585335,-0.019225,0.769503,0.630297,-0.018604,0.824366,0.603039,-0.025798,0.803607,0.631508,-0.01486,0,1,0
375,'2026/05/14 11:50:46:456',2,0.76541,0.759405,-0.000001,0.714813,0.543321,-0.064242,0.709646,0.567244,-0.017582,0.709892,0.607878,-0.053937,0.748632,0.573122,-0.015854,0.743809,0.62341,-0.037547,0.787668,0.583758,-0.020022,0.771052,0.629789,-0.018598,0.825567,0.602301,-0.026743,0.804436,0.631053,-0.015067,0,1,0
376,'2026/05/14 11:50:46:486',2,0.76489,0.761485,-0.000001,0.714929,0.540671,-0.061382,0.709247,0.570439,-0.013117,0.709454,0.610026,-0.050642,0.747946,0.576006,-0.012166,0.74225,0.623836,-0.035243,0.786892,0.586214,-0.017259,0.769749,0.631851,-0.01656,0.824863,0.604552,-0.024781,0.804213,0.632406,-0.012799,0,1,0
377,'2026/05/14 11:50:46:517',2,0.765619,0.761103,-0.000001,0.71509,0.541299,-0.065144,0.710045,0.56842,-0.016486,0.709915,0.609789,-0.053132,0.749139,0.574304,-0.014564,0.743596,0.62361,-0.037445,0.788131,0.584922,-0.01867,0.771229,0.629722,-0.017764,0.825713,0.603386,-0.02538,0.80487,0.63154,-0.01378,0,1,0
378,'2026/05/14 11:50:46:547',2,0.765375,0.760685,-0.000001,0.715583,0.541029,-0.063556,0.709116,0.570266,-0.015399,0.70945,0.609883,-0.050104,0.748601,0.575497,-0.013223,0.742942,0.623913,-0.034563,0.787919,0.585574,-0.017111,0.770686,0.630772,-0.01618,0.825879,0.603575,-0.023501,0.805643,0.631835,-0.011979,0,1,0
379,'2026/05/14 11:50:46:578',2,0.765099,0.760396,-0.000001,0.716463,0.542319,-0.063669,0.708813,0.57092,-0.016491,0.709417,0.609965,-0.050619,0.748269,0.57584,-0.014555,0.742832,0.623553,-0.035166,0.787448,0.585903,-0.01859,0.770563,0.630784,-0.017317,0.825356,0.604049,-0.025146,0.805187,0.632017,-0.014003,0,1,0
380,'2026/05/14 11:50:46:608',2,0.764841,0.759075,-0.000001,0.715182,0.542587,-0.065664,0.708346,0.569363,-0.020027,0.709816,0.611688,-0.053063,0.748043,0.574113,-0.017929,0.742967,0.624227,-0.03857,0.787425,0.584316,-0.021649,0.77028,0.631322,-0.020842,0.825209,0.602843,-0.027928,0.804585,0.632818,-0.018215,0,1,0
381,'2026/05/14 11:50:46:658',2,0.766272,0.759701,-0.000001,0.715883,0.540432,-0.062415,0.708557,0.571301,-0.017278,0.710233,0.6121,-0.052405,0.748258,0.575698,-0.014806,0.743648,0.624413,-0.036037,0.787599,0.585102,-0.018388,0.771462,0.630438,-0.017475,0.825734,0.602765,-0.02459,0.805773,0.631237,-0.01473,0,1,0
382,'2026/05/14 11:50:46:687',2,0.764224,0.759151,-0.000001,0.713433,0.54217,-0.064806,0.708388,0.566008,-0.018678,0.709861,0.608965,-0.052626,0.747995,0.570701,-0.016955,0.743499,0.622711,-0.038139,0.787657,0.581473,-0.021018,0.770791,0.62976,-0.020463,0.825526,0.600685,-0.027642,0.804553,0.631654,-0.017744,0,1,0
383,'2026/05/14 11:50:46:718',2,0.765519,0.760669,-0.000001,0.715884,0.542553,-0.063802,0.708967,0.571034,-0.016691,0.710331,0.610619,-0.051791,0.748426,0.575815,-0.014894,0.743776,0.624578,-0.035927,0.787797,0.585701,-0.019038,0.771065,0.631239,-0.018056,0.825653,0.603803,-0.025706,0.805049,0.631644,-0.014924,0,1,0
384,'2026/05/14 11:50:46:752',2,0.765399,0.761464,-0.000001,0.716637,0.542439,-0.062752,0.70982,0.56943,-0.017675,0.710665,0.608199,-0.052238,0.748928,0.57483,-0.015578,0.743582,0.623158,-0.03593,0.788117,0.585192,-0.019358,0.770729,0.630022,-0.017782,0.825701,0.603472,-0.025637,0.805509,0.631182,-0.014336,0,1,0
385,'2026/05/14 11:50:46:782',2,0.764827,0.760614,-0.000001,0.716654,0.541188,-0.06424,0.710408,0.567988,-0.017192,0.710369,0.608182,-0.053397,0.749391,0.573879,-0.015557,0.744037,0.623366,-0.036663,0.788508,0.584728,-0.019824,0.771398,0.630181,-0.01804,0.826226,0.603423,-0.02662,0.805155,0.631569,-0.01449,0,1,0
386,'2026/05/14 11:50:46:812',2,0.764962,0.759249,-0.000001,0.713779,0.540449,-0.064165,0.710541,0.566374,-0.017859,0.711215,0.60944,-0.053376,0.749424,0.572087,-0.016621,0.7446,0.623202,-0.038473,0.788475,0.582984,-0.021192,0.771461,0.629968,-0.01976,0.826055,0.602038,-0.0283,0.80441,0.631555,-0.016783,0,1,0
387,'2026/05/14 11:50:46:845',2,0.764995,0.759315,-0.000001,0.717188,0.540825,-0.064768,0.708723,0.568188,-0.018613,0.709928,0.609411,-0.051743,0.748567,0.57257,-0.016469,0.743149,0.623342,-0.036801,0.787958,0.582905,-0.020101,0.770445,0.629316,-0.018647,0.825745,0.602011,-0.026259,0.804638,0.630362,-0.01567,0,1,0
388,'2026/05/14 11:50:46:879',2,0.765263,0.756202,-0.000001,0.714356,0.54038,-0.06155,0.708852,0.564581,-0.018282,0.709815,0.608447,-0.05196,0.748335,0.569342,-0.016347,0.743453,0.622289,-0.03641,0.787758,0.579903,-0.020057,0.770684,0.62853,-0.018112,0.825416,0.598897,-0.026283,0.804356,0.629595,-0.0152,0,1,0
389,'2026/05/14 11:50:46:912',2,0.764886,0.75864,-0.000001,0.715401,0.541471,-0.063084,0.709565,0.568522,-0.016522,0.710177,0.608357,-0.052005,0.748755,0.573224,-0.014834,0.74324,0.622657,-0.035801,0.787801,0.583208,-0.01904,0.770323,0.629432,-0.017086,0.825298,0.601658,-0.02582,0.804323,0.62973,-0.013988,0,1,0
390,'2026/05/14 11:50:46:950',2,0.764761,0.760331,-0.000001,0.714048,0.539065,-0.064201,0.709017,0.567179,-0.015321,0.709685,0.608201,-0.052773,0.747743,0.572418,-0.013629,0.742366,0.621716,-0.03668,0.786694,0.582931,-0.017833,0.769717,0.628548,-0.016751,0.824456,0.601765,-0.024573,0.803643,0.629229,-0.011955,0,1,0
391,'2026/05/14 11:50:46:981',2,0.764551,0.757689,-0.000001,0.713877,0.540385,-0.065735,0.708067,0.566041,-0.019591,0.709535,0.607356,-0.055112,0.747172,0.571113,-0.01795,0.742717,0.621983,-0.038971,0.786421,0.581628,-0.022037,0.769782,0.628788,-0.020342,0.824128,0.600346,-0.028652,0.802974,0.629924,-0.017245,0,1,0
392,'2026/05/14 11:50:47:005',2,0.763973,0.758077,-0.000001,0.713814,0.538966,-0.06205,0.707198,0.571345,-0.017177,0.708731,0.612043,-0.050401,0.746608,0.57543,-0.014962,0.741466,0.623135,-0.034701,0.785691,0.584586,-0.018766,0.768462,0.629927,-0.017717,0.82347,0.602238,-0.025144,0.802677,0.629737,-0.015536,0,1,0
393,'2026/05/14 11:50:47:057',2,0.764575,0.756919,-0.000001,0.714216,0.540002,-0.062472,0.707798,0.568532,-0.016906,0.710131,0.608034,-0.050812,0.747028,0.573067,-0.015318,0.742531,0.622506,-0.036813,0.786082,0.583046,-0.01945,0.769297,0.629633,-0.017982,0.823822,0.60173,-0.026091,0.80296,0.630216,-0.014932,0,1,0
394,'2026/05/14 11:50:47:089',2,0.764199,0.759279,-0.000001,0.715347,0.539591,-0.062144,0.707072,0.568954,-0.016577,0.707767,0.606335,-0.051282,0.74644,0.573827,-0.014447,0.740958,0.621091,-0.035173,0.785744,0.58397,-0.018213,0.768671,0.628387,-0.017254,0.823561,0.60192,-0.024445,0.803656,0.63016,-0.01388,0,1,0
395,'2026/05/14 11:50:47:122',2,0.764339,0.754539,-0.000001,0.715106,0.539801,-0.063316,0.706507,0.56755,-0.020961,0.70967,0.610561,-0.051986,0.746493,0.571092,-0.018384,0.741925,0.622615,-0.03798,0.785878,0.580793,-0.021433,0.76864,0.628874,-0.020205,0.823683,0.599451,-0.027065,0.802677,0.630049,-0.018728,0,1,0
396,'2026/05/14 11:50:47:151',2,0.763559,0.758527,-0.000001,0.714932,0.539318,-0.064522,0.708042,0.56917,-0.016606,0.708929,0.608438,-0.051543,0.747347,0.573884,-0.014566,0.741984,0.62169,-0.035619,0.786493,0.583904,-0.01856,0.769203,0.628913,-0.018036,0.82426,0.60205,-0.02507,0.80383,0.629575,-0.014447,0,1,0
397,'2026/05/14 11:50:47:183',2,0.764084,0.758332,-0.000001,0.715264,0.539552,-0.06541,0.708234,0.568513,-0.017725,0.709422,0.608382,-0.053783,0.747724,0.573354,-0.015487,0.742771,0.621511,-0.03698,0.786844,0.583391,-0.019396,0.769819,0.628459,-0.019051,0.824466,0.601591,-0.025914,0.803815,0.629442,-0.015795,0,1,0
398,'2026/05/14 11:50:47:214',2,0.764882,0.755448,-0.000001,0.711791,0.539037,-0.059602,0.70794,0.563329,-0.016267,0.708938,0.60504,-0.049503,0.746973,0.56884,-0.015053,0.741687,0.619126,-0.034922,0.786179,0.579534,-0.019412,0.768896,0.626977,-0.017157,0.824112,0.598308,-0.026195,0.803151,0.62838,-0.014328,0,1,0
399,'2026/05/14 11:50:47:246',2,0.764297,0.755465,-0.000001,0.711254,0.538572,-0.059704,0.706583,0.567048,-0.018642,0.709672,0.607187,-0.051928,0.746281,0.570964,-0.016658,0.741574,0.619683,-0.036415,0.785705,0.580639,-0.020321,0.768505,0.627377,-0.019115,0.823651,0.59872,-0.026432,0.802499,0.628241,-0.016457,0,1,0
400,'2026/05/14 11:50:47:279',2,0.763236,0.755199,-0.000001,0.713709,0.538002,-0.063597,0.706133,0.566777,-0.019563,0.709469,0.607305,-0.054287,0.746131,0.570665,-0.017222,0.742004,0.620058,-0.037973,0.785428,0.580376,-0.020759,0.76886,0.626872,-0.019688,0.823245,0.598702,-0.026889,0.802524,0.627475,-0.017376,0,1,0
401,'2026/05/14 11:50:47:309',2,0.76342,0.754935,-0.000001,0.713693,0.538206,-0.0627,0.707365,0.568668,-0.017586,0.70821,0.608762,-0.051616,0.746615,0.573128,-0.015742,0.740782,0.620683,-0.035545,0.785512,0.582828,-0.01977,0.768471,0.627963,-0.017499,0.823117,0.601023,-0.026372,0.802194,0.628861,-0.015246,0,1,0
402,'2026/05/14 11:50:47:342',2,0.763195,0.751233,-0.000001,0.713232,0.538039,-0.063526,0.706325,0.564102,-0.021159,0.709085,0.60533,-0.054319,0.74603,0.567894,-0.018661,0.741515,0.618582,-0.039042,0.785202,0.577638,-0.021809,0.76868,0.625158,-0.02047,0.823267,0.596107,-0.02752,0.802259,0.626719,-0.018066,0,1,0
403,'2026/05/14 11:50:47:373',2,0.764106,0.751654,-0.000001,0.713379,0.539023,-0.062211,0.70649,0.563502,-0.020627,0.709025,0.605203,-0.052807,0.746403,0.567164,-0.018258,0.741498,0.619338,-0.037445,0.785831,0.576987,-0.021338,0.768562,0.62617,-0.019059,0.823774,0.595747,-0.026935,0.802472,0.626641,-0.016769,0,1,0
404,'2026/05/14 11:50:47:411',2,0.76486,0.753083,-0.000001,0.711532,0.53645,-0.059738,0.706697,0.562236,-0.018194,0.708481,0.605675,-0.048791,0.746118,0.565951,-0.016601,0.741638,0.618317,-0.035999,0.785657,0.575827,-0.02039,0.768492,0.625545,-0.018646,0.823411,0.594388,-0.026585,0.802755,0.626586,-0.016145,0,1,0
405,'2026/05/14 11:50:47:457',2,0.762699,0.753942,-0.000001,0.715093,0.537213,-0.064023,0.706978,0.568659,-0.020396,0.70779,0.608407,-0.050729,0.746642,0.572161,-0.017352,0.740941,0.620177,-0.035659,0.785511,0.581643,-0.0201,0.768274,0.626662,-0.018352,0.822833,0.59993,-0.025463,0.802245,0.627543,-0.016551,0,1,0
406,'2026/05/14 11:50:47:486',2,0.76333,0.753248,-0.000001,0.71401,0.537787,-0.061406,0.706743,0.565599,-0.019818,0.708658,0.606485,-0.051687,0.746226,0.569932,-0.017812,0.741541,0.619719,-0.037358,0.785462,0.579684,-0.021369,0.768346,0.626292,-0.019349,0.823229,0.597969,-0.027437,0.801857,0.62723,-0.017499,0,1,0
407,'2026/05/14 11:50:47:521',2,0.764091,0.753438,-0.000001,0.714438,0.537004,-0.063805,0.708149,0.56373,-0.018653,0.709131,0.60574,-0.052251,0.747503,0.568628,-0.016611,0.74243,0.619581,-0.037286,0.786544,0.579016,-0.020333,0.76934,0.625126,-0.018601,0.824197,0.597768,-0.026649,0.802025,0.626743,-0.016349,0,1,0
408,'2026/05/14 11:50:47:560',2,0.764773,0.754881,-0.000001,0.715856,0.53861,-0.061707,0.708443,0.569001,-0.01547,0.709474,0.610354,-0.051124,0.747596,0.572824,-0.013826,0.742226,0.621867,-0.035166,0.786222,0.581866,-0.018226,0.769305,0.628001,-0.016612,0.823758,0.599725,-0.025247,0.802517,0.627655,-0.01407,0,1,0
409,'2026/05/14 11:50:47:593',2,0.764805,0.752924,-0.000001,0.713009,0.53878,-0.060415,0.705847,0.56068,-0.020261,0.708681,0.604194,-0.050066,0.745683,0.564672,-0.0177,0.740893,0.617706,-0.035849,0.785245,0.57491,-0.020515,0.768436,0.625124,-0.018512,0.823108,0.593866,-0.025823,0.802538,0.62752,-0.016614,0,1,0
410,'2026/05/14 11:50:47:623',2,0.763777,0.755671,-0.000001,0.713572,0.537804,-0.062182,0.707326,0.564328,-0.017622,0.710095,0.605992,-0.05145,0.747032,0.568343,-0.015156,0.742868,0.618769,-0.035281,0.78632,0.578422,-0.01858,0.769582,0.626231,-0.017855,0.824309,0.597243,-0.024603,0.802865,0.62685,-0.015085,0,1,0
411,'2026/05/14 11:50:47:657',2,0.764423,0.758415,-0.000001,0.715113,0.535989,-0.061601,0.707569,0.568384,-0.01687,0.710004,0.60886,-0.04994,0.747606,0.572341,-0.01384,0.742329,0.619656,-0.033528,0.786735,0.582034,-0.017056,0.768784,0.627958,-0.016037,0.824239,0.600205,-0.022969,0.801986,0.628182,-0.013687,0,1,0
412,'2026/05/14 11:50:47:685',2,0.766003,0.757612,-0.000001,0.717627,0.538924,-0.063308,0.709394,0.567201,-0.016484,0.711349,0.608379,-0.053144,0.748565,0.571439,-0.014838,0.74422,0.62147,-0.036762,0.7873,0.581206,-0.01923,0.770817,0.628128,-0.017625,0.82488,0.600032,-0.026255,0.804282,0.628822,-0.014529,0,1,0
413,'2026/05/14 11:50:47:716',2,0.764985,0.75625,-0.000001,0.715501,0.539348,-0.063584,0.709321,0.564988,-0.018468,0.71025,0.606907,-0.053326,0.748696,0.570154,-0.016534,0.743594,0.620577,-0.0372,0.788,0.580904,-0.02036,0.770958,0.62772,-0.018136,0.825529,0.599995,-0.026728,0.804405,0.629065,-0.014769,0,1,0
414,'2026/05/14 11:50:47:746',2,0.76553,0.758798,-0.000001,0.718328,0.53899,-0.060035,0.709132,0.569516,-0.012706,0.710315,0.611395,-0.049328,0.74851,0.573891,-0.011339,0.74381,0.62333,-0.033346,0.787473,0.583597,-0.016123,0.771051,0.629438,-0.014889,0.82537,0.602112,-0.023485,0.804568,0.629166,-0.011551,0,1,0
415,'2026/05/14 11:50:47:778',2,0.765926,0.756127,-0.000001,0.714734,0.54099,-0.062236,0.708825,0.566588,-0.01777,0.71152,0.607513,-0.052049,0.748423,0.571031,-0.015975,0.743902,0.621419,-0.037171,0.787951,0.581153,-0.019867,0.770496,0.629026,-0.018856,0.825854,0.599803,-0.026263,0.80396,0.630445,-0.01606,0,1,0
416,'2026/05/14 11:50:47:810',2,0.765863,0.759772,-0.000001,0.717354,0.539438,-0.062272,0.709549,0.570985,-0.014156,0.710983,0.610934,-0.050314,0.749006,0.575079,-0.012342,0.744601,0.623439,-0.034092,0.788251,0.584371,-0.016733,0.771541,0.630014,-0.016509,0.826075,0.601967,-0.023698,0.805867,0.62975,-0.013384,0,1,0
417,'2026/05/14 11:50:47:856',2,0.766138,0.759687,-0.000001,0.717265,0.540834,-0.062216,0.709545,0.571368,-0.015902,0.711522,0.612281,-0.050349,0.749085,0.575436,-0.014229,0.744235,0.624347,-0.034942,0.788287,0.584973,-0.018537,0.771079,0.631408,-0.017408,0.82629,0.603369,-0.025394,0.804974,0.63096,-0.014811,0,1,0
418,'2026/05/14 11:50:47:888',2,0.765822,0.758353,-0.000001,0.715978,0.54192,-0.063253,0.710086,0.567177,-0.018459,0.711588,0.610074,-0.053254,0.74941,0.572805,-0.016843,0.744573,0.622924,-0.038684,0.78873,0.58351,-0.020952,0.77193,0.629867,-0.019817,0.826769,0.602774,-0.027581,0.805878,0.631823,-0.01658,0,1,0
419,'2026/05/14 11:50:47:920',2,0.766156,0.75897,-0.000001,0.716416,0.540867,-0.062515,0.707753,0.565758,-0.020599,0.711694,0.608716,-0.054291,0.748175,0.570772,-0.018147,0.74391,0.620968,-0.038435,0.788101,0.581486,-0.021387,0.771129,0.629459,-0.020393,0.826339,0.600738,-0.027189,0.805515,0.632957,-0.018706,0,1,0
420,'2026/05/14 11:50:47:951',2,0.766476,0.756839,-0.000001,0.7147,0.540917,-0.062908,0.709031,0.563364,-0.021164,0.712682,0.60947,-0.052526,0.749774,0.567974,-0.019194,0.744899,0.621816,-0.038099,0.790095,0.578791,-0.022739,0.772281,0.630329,-0.02077,0.828485,0.598454,-0.028783,0.805748,0.632871,-0.019088,0,1,0
421,'2026/05/14 11:50:47:983',2,0.766096,0.758463,-0.000001,0.717532,0.540532,-0.063865,0.709081,0.566375,-0.020674,0.712454,0.609794,-0.054941,0.749274,0.571002,-0.018016,0.745006,0.621613,-0.03869,0.789007,0.581388,-0.021242,0.772567,0.628626,-0.02021,0.827245,0.600276,-0.027149,0.806503,0.632161,-0.018503,0,1,0
422,'2026/05/14 11:50:48:015',2,0.767735,0.757707,-0.000001,0.715357,0.541574,-0.061413,0.709736,0.565974,-0.019452,0.712451,0.608917,-0.050721,0.750194,0.570346,-0.01748,0.745686,0.621447,-0.035995,0.790103,0.580911,-0.021127,0.772726,0.630357,-0.019369,0.828161,0.60014,-0.027277,0.806188,0.633184,-0.017253,0,1,0
423,'2026/05/14 11:50:48:047',2,0.768139,0.760345,-0.000001,0.719347,0.541465,-0.061993,0.711476,0.569195,-0.016148,0.713553,0.611275,-0.051482,0.751065,0.574135,-0.014461,0.746491,0.623306,-0.035474,0.790318,0.584475,-0.018814,0.773216,0.631086,-0.017327,0.828217,0.603449,-0.025764,0.806664,0.632387,-0.014337,0,1,0
424,'2026/05/14 11:50:48:079',2,0.768765,0.758056,-0.000001,0.717459,0.540503,-0.062452,0.711516,0.565962,-0.018596,0.713324,0.609816,-0.054129,0.750909,0.570723,-0.017313,0.746893,0.623086,-0.038581,0.790386,0.581095,-0.021765,0.773977,0.630614,-0.019464,0.82851,0.600141,-0.028815,0.806908,0.632506,-0.01736,0,1,0
425,'2026/05/14 11:50:48:110',2,0.768473,0.760199,-0.000001,0.716551,0.54088,-0.060917,0.711453,0.563844,-0.017028,0.711635,0.607767,-0.051042,0.750862,0.570439,-0.015934,0.746135,0.622195,-0.037032,0.790559,0.581848,-0.020547,0.77385,0.630532,-0.019107,0.828785,0.601112,-0.027618,0.806478,0.632432,-0.015829,0,1,0
426,'2026/05/14 11:50:48:143',2,0.767854,0.760043,-0.000001,0.71946,0.541135,-0.059775,0.71123,0.566921,-0.015793,0.71353,0.609958,-0.050747,0.750837,0.571488,-0.014686,0.7467,0.623041,-0.035898,0.790442,0.581948,-0.019327,0.773518,0.630249,-0.017493,0.828603,0.601235,-0.026452,0.807229,0.631902,-0.014818,0,1,0
427,'2026/05/14 11:50:48:173',2,0.767536,0.758337,-0.000001,0.717865,0.541913,-0.060715,0.712233,0.565081,-0.017147,0.712701,0.608234,-0.050947,0.751404,0.570615,-0.016461,0.746819,0.622375,-0.037299,0.790843,0.58174,-0.021436,0.774005,0.629895,-0.019721,0.828883,0.601047,-0.028866,0.80698,0.631781,-0.017137,0,1,0
428,'2026/05/14 11:50:48:207',2,0.767652,0.760032,-0.000001,0.717704,0.54086,-0.060828,0.710944,0.567227,-0.01828,0.713853,0.610076,-0.051584,0.750865,0.571329,-0.016237,0.746331,0.621609,-0.035867,0.790335,0.581489,-0.019984,0.773539,0.629306,-0.017657,0.828321,0.600403,-0.026319,0.807447,0.631588,-0.015305,0,1,0
429,'2026/05/14 11:50:48:261',2,0.766352,0.759206,-0.000001,0.716465,0.541545,-0.063001,0.709929,0.565709,-0.019653,0.713552,0.60757,-0.054093,0.750151,0.570082,-0.017772,0.745706,0.620826,-0.038131,0.790097,0.580706,-0.02162,0.772838,0.629081,-0.019625,0.828318,0.600147,-0.028048,0.806792,0.632661,-0.017429,0,1,0
430,'2026/05/14 11:50:48:297',2,0.768227,0.760026,-0.000001,0.715734,0.541457,-0.061629,0.710246,0.566524,-0.018923,0.712345,0.610924,-0.05043,0.75055,0.570681,-0.016758,0.745605,0.622113,-0.035694,0.79058,0.58127,-0.020241,0.773269,0.630141,-0.017686,0.828885,0.600773,-0.026333,0.806633,0.63322,-0.015802,0,1,0
431,'2026/05/14 11:50:48:326',2,0.767822,0.76121,-0.000001,0.717456,0.541759,-0.062341,0.710873,0.566887,-0.018982,0.713382,0.609844,-0.051792,0.750925,0.572052,-0.016857,0.745867,0.62244,-0.037272,0.790515,0.583178,-0.020565,0.773129,0.630592,-0.019206,0.828557,0.602875,-0.026869,0.807478,0.634219,-0.016939,0,1,0
432,'2026/05/14 11:50:48:356',2,0.768067,0.761338,-0.000001,0.719642,0.542675,-0.064929,0.71209,0.568655,-0.018355,0.713182,0.60926,-0.055377,0.751743,0.574206,-0.01654,0.746524,0.623729,-0.038464,0.791281,0.58497,-0.020623,0.773863,0.631153,-0.018975,0.829301,0.604103,-0.027286,0.807882,0.63267,-0.015853,0,1,0
433,'2026/05/14 11:50:48:387',2,0.767873,0.760289,-0.000001,0.71735,0.541374,-0.061709,0.710602,0.569132,-0.019085,0.713472,0.612077,-0.052006,0.750934,0.573759,-0.016733,0.746068,0.623571,-0.036833,0.790658,0.58411,-0.020228,0.773104,0.631264,-0.018579,0.828852,0.602976,-0.026332,0.807013,0.633832,-0.016479,0,1,0
434,'2026/05/14 11:50:48:419',2,0.768038,0.760536,-0.000001,0.716573,0.541958,-0.062084,0.711242,0.566216,-0.017831,0.713458,0.60848,-0.053535,0.75071,0.572039,-0.016676,0.746713,0.622855,-0.038315,0.790252,0.583002,-0.021329,0.774128,0.630589,-0.019572,0.828641,0.602339,-0.028558,0.807367,0.63397,-0.017453,0,1,0
435,'2026/05/14 11:50:48:450',2,0.768108,0.760416,-0.000001,0.718057,0.541812,-0.061751,0.710633,0.567034,-0.018357,0.712102,0.610167,-0.05376,0.750627,0.572923,-0.016407,0.746074,0.623526,-0.037435,0.790451,0.583736,-0.020312,0.773835,0.631116,-0.018531,0.829005,0.602647,-0.026833,0.807326,0.63369,-0.015973,0,1,0
436,'2026/05/14 11:50:48:483',2,0.766985,0.760849,-0.000001,0.717077,0.541031,-0.062627,0.71083,0.564746,-0.019223,0.713305,0.608599,-0.055197,0.750643,0.569855,-0.017263,0.746735,0.622318,-0.038436,0.790573,0.580948,-0.021083,0.774215,0.629802,-0.019448,0.82889,0.600449,-0.027491,0.808114,0.632597,-0.016687,0,1,0
437,'2026/05/14 11:50:48:513',2,0.768163,0.759068,-0.000001,0.717253,0.541975,-0.059585,0.709551,0.566418,-0.017757,0.712283,0.610598,-0.051285,0.749768,0.571361,-0.016124,0.745705,0.62334,-0.036205,0.789808,0.581891,-0.020186,0.773342,0.631266,-0.017773,0.828459,0.601194,-0.026775,0.807166,0.633829,-0.015396,0,1,0
438,'2026/05/14 11:50:48:545',2,0.767462,0.757818,-0.000001,0.716409,0.541442,-0.062177,0.708732,0.565848,-0.020118,0.711853,0.610577,-0.052343,0.749184,0.570352,-0.018091,0.745167,0.623914,-0.03771,0.789485,0.580665,-0.021688,0.773078,0.632052,-0.020046,0.828259,0.599755,-0.027788,0.807032,0.633869,-0.017834,0,1,0
439,'2026/05/14 11:50:48:576',2,0.768136,0.759693,-0.000001,0.71583,0.542028,-0.058877,0.710133,0.567446,-0.01812,0.712344,0.611354,-0.050289,0.750487,0.572161,-0.016295,0.745587,0.623386,-0.035408,0.790265,0.582759,-0.020197,0.773096,0.631148,-0.017244,0.828606,0.602047,-0.026689,0.806529,0.634068,-0.015764,0,1,0
440,'2026/05/14 11:50:48:615',2,0.76686,0.761882,-0.000001,0.717227,0.541623,-0.062864,0.709649,0.569338,-0.018637,0.71169,0.6123,-0.053422,0.750003,0.574318,-0.016266,0.744929,0.623573,-0.036729,0.789855,0.585006,-0.019911,0.772556,0.631534,-0.018759,0.828155,0.604178,-0.026161,0.806882,0.633351,-0.015889,0,1,0
441,'2026/05/14 11:50:48:657',2,0.767583,0.760979,-0.000001,0.715242,0.542745,-0.059911,0.709739,0.566756,-0.019494,0.712589,0.609179,-0.052251,0.750144,0.571645,-0.01748,0.744983,0.62264,-0.036736,0.790266,0.582488,-0.021026,0.772818,0.63092,-0.017947,0.828614,0.60169,-0.027126,0.80692,0.633908,-0.015954,0,1,0
442,'2026/05/14 11:50:48:686',2,0.768209,0.759182,-0.000001,0.717537,0.541678,-0.062357,0.710302,0.566767,-0.01953,0.712047,0.609386,-0.054088,0.750157,0.57192,-0.017428,0.745918,0.623741,-0.038591,0.789942,0.582335,-0.021101,0.773514,0.630948,-0.019545,0.828502,0.601095,-0.02739,0.80731,0.633596,-0.017509,0,1,0
443,'2026/05/14 11:50:48:720',2,0.76731,0.760025,-0.000001,0.715829,0.543418,-0.062567,0.711064,0.56752,-0.017753,0.712313,0.608715,-0.053908,0.750638,0.573103,-0.016643,0.745894,0.62311,-0.03779,0.790226,0.584072,-0.021312,0.773305,0.63173,-0.019004,0.828593,0.603505,-0.02853,0.806574,0.634458,-0.01655,0,1,0
444,'2026/05/14 11:50:48:752',2,0.767707,0.762039,-0.000001,0.71869,0.543308,-0.062363,0.711042,0.571905,-0.016704,0.712888,0.613068,-0.052303,0.750962,0.576628,-0.015019,0.746378,0.625401,-0.035863,0.79057,0.586714,-0.019369,0.7734,0.633075,-0.01772,0.82859,0.605286,-0.026297,0.807231,0.633808,-0.015081,0,1,0
445,'2026/05/14 11:50:48:786',2,0.767826,0.762902,-0.000001,0.718268,0.542141,-0.062518,0.711674,0.570159,-0.017315,0.712599,0.614586,-0.054053,0.751474,0.575556,-0.015853,0.746572,0.625713,-0.037632,0.79104,0.586227,-0.020388,0.773696,0.633128,-0.018446,0.82924,0.605486,-0.027547,0.807037,0.634782,-0.01545,0,1,0
446,'2026/05/14 11:50:48:815',2,0.767918,0.760051,-0.000001,0.716502,0.542467,-0.058589,0.709231,0.567284,-0.020378,0.712638,0.616053,-0.052705,0.749971,0.571797,-0.018301,0.745689,0.625211,-0.037179,0.790411,0.582387,-0.021755,0.773338,0.633131,-0.019324,0.829022,0.601648,-0.027729,0.806964,0.63471,-0.017311,0,1,0
447,'2026/05/14 11:50:48:846',2,0.76841,0.759911,-0.000001,0.715188,0.541769,-0.062313,0.711583,0.567826,-0.017623,0.713332,0.609512,-0.051486,0.75083,0.573398,-0.016553,0.746842,0.622922,-0.037982,0.790306,0.584072,-0.021206,0.77386,0.631297,-0.020393,0.828259,0.602477,-0.028311,0.807222,0.633701,-0.017624,0,1,0
448,'2026/05/14 11:50:48:880',2,0.766471,0.761486,-0.000001,0.717682,0.542406,-0.061265,0.711651,0.567459,-0.016005,0.712701,0.609142,-0.052056,0.750891,0.573314,-0.014894,0.745645,0.623922,-0.036995,0.79038,0.584625,-0.019527,0.772889,0.631849,-0.017946,0.828532,0.604232,-0.026647,0.806768,0.633914,-0.014678,0,1,0
449,'2026/05/14 11:50:48:910',2,0.766925,0.760018,-0.000001,0.715765,0.543549,-0.064447,0.710756,0.566581,-0.020109,0.712234,0.609738,-0.054424,0.750684,0.571772,-0.017983,0.745698,0.623474,-0.038443,0.79038,0.582828,-0.021635,0.773452,0.631485,-0.02015,0.828479,0.602372,-0.027885,0.807344,0.634314,-0.017667,0,1,0
450,'2026/05/14 11:50:48:947',2,0.767586,0.761732,-0.000001,0.716638,0.543263,-0.059738,0.710624,0.567484,-0.018978,0.713497,0.610866,-0.052771,0.75077,0.572059,-0.017348,0.746418,0.624418,-0.03704,0.790497,0.583032,-0.021317,0.773476,0.632277,-0.0182,0.828882,0.603092,-0.027806,0.806786,0.634755,-0.016132,0,1,0
451,'2026/05/14 11:50:48:985',2,0.767867,0.760696,-0.000001,0.717665,0.543236,-0.060128,0.710497,0.567894,-0.017666,0.712974,0.611629,-0.051347,0.750775,0.572707,-0.01607,0.746108,0.62474,-0.036282,0.790739,0.583648,-0.020154,0.77304,0.633275,-0.017936,0.829304,0.60367,-0.02674,0.806505,0.635847,-0.015759,0,1,0
452,'2026/05/14 11:50:49:016',2,0.768152,0.760645,-0.000001,0.718723,0.542269,-0.059369,0.710183,0.568733,-0.018568,0.712991,0.612913,-0.052017,0.750537,0.573096,-0.016649,0.74619,0.625076,-0.036696,0.790484,0.583621,-0.020466,0.773705,0.632651,-0.018395,0.829156,0.603281,-0.026837,0.807708,0.635409,-0.016647,0,1,0
453,'2026/05/14 11:50:49:058',2,0.769496,0.764428,-0.000001,0.721007,0.545121,-0.06437,0.713495,0.570383,-0.016719,0.71324,0.612294,-0.053547,0.752948,0.575686,-0.014989,0.746905,0.626531,-0.036773,0.792089,0.58655,-0.019198,0.774414,0.63334,-0.016652,0.829696,0.606227,-0.026017,0.808578,0.634746,-0.013005,0,1,0
454,'2026/05/14 11:50:49:095',2,0.769142,0.761701,-0.000001,0.718971,0.542392,-0.063297,0.712023,0.568778,-0.017871,0.713547,0.613078,-0.052023,0.751788,0.573265,-0.016618,0.747414,0.62638,-0.03799,0.79144,0.583958,-0.021121,0.774607,0.633609,-0.019892,0.829636,0.603371,-0.028121,0.808098,0.635305,-0.017203,0,1,0
455,'2026/05/14 11:50:49:129',2,0.769069,0.764576,-0.000001,0.72063,0.54406,-0.063046,0.713953,0.571677,-0.016073,0.715169,0.612809,-0.053359,0.753336,0.5772,-0.014553,0.748882,0.62601,-0.036685,0.792426,0.587869,-0.019182,0.775835,0.63306,-0.01787,0.830195,0.606763,-0.026428,0.808813,0.634856,-0.014354,0,1,0
456,'2026/05/14 11:50:49:161',2,0.768425,0.766185,-0.000001,0.719784,0.543005,-0.062013,0.712787,0.572392,-0.015219,0.714772,0.6137,-0.053745,0.752331,0.577412,-0.013843,0.748149,0.626167,-0.036384,0.791755,0.587738,-0.018677,0.775353,0.633406,-0.01671,0.830014,0.606584,-0.026186,0.809418,0.63474,-0.01352,0,1,0
457,'2026/05/14 11:50:49:189',2,0.767086,0.762575,-0.000001,0.718352,0.543403,-0.062921,0.711766,0.569796,-0.018147,0.713328,0.614252,-0.052526,0.751924,0.574588,-0.016351,0.746991,0.626324,-0.036802,0.791684,0.585553,-0.020461,0.774395,0.633911,-0.018137,0.829928,0.605589,-0.027215,0.807935,0.636133,-0.015614,0,1,0
458,'2026/05/14 11:50:49:225',2,0.768523,0.763904,-0.000001,0.717415,0.543179,-0.061172,0.710954,0.570305,-0.018279,0.714643,0.612039,-0.052735,0.75098,0.575055,-0.016375,0.746964,0.624983,-0.036861,0.790465,0.585617,-0.02033,0.773699,0.633673,-0.017875,0.828596,0.605066,-0.026917,0.807332,0.636357,-0.015704,0,1,0
459,'2026/05/14 11:50:49:251',2,0.768551,0.763146,-0.000001,0.719403,0.544344,-0.063495,0.711579,0.570994,-0.017745,0.713152,0.612083,-0.054012,0.751339,0.576108,-0.015864,0.746164,0.625865,-0.037293,0.790922,0.586384,-0.019907,0.773941,0.633058,-0.018139,0.82926,0.604974,-0.026558,0.808166,0.634867,-0.01531,0,1,0
460,'2026/05/14 11:50:49:282',2,0.766063,0.762699,-0.000001,0.718623,0.542842,-0.062376,0.71119,0.568132,-0.018003,0.713476,0.611531,-0.053404,0.751177,0.574092,-0.016275,0.746462,0.623717,-0.037675,0.790891,0.585488,-0.020536,0.773647,0.632693,-0.019388,0.829035,0.605405,-0.027397,0.80745,0.636159,-0.016993,0,1,0
461,'2026/05/14 11:50:49:312',2,0.768098,0.761805,-0.000001,0.716687,0.543973,-0.062767,0.711735,0.567152,-0.020389,0.714584,0.609504,-0.05347,0.75193,0.571954,-0.0186,0.747332,0.624011,-0.038215,0.791844,0.582873,-0.022392,0.774854,0.632514,-0.020245,0.830022,0.602393,-0.028701,0.808768,0.635559,-0.018044,0,1,0
462,'2026/05/14 11:50:49:344',2,0.767935,0.762487,-0.000001,0.717607,0.542825,-0.064491,0.712532,0.56727,-0.020685,0.714733,0.609908,-0.054856,0.752178,0.572621,-0.019054,0.747738,0.624226,-0.039418,0.792022,0.584129,-0.023014,0.774979,0.6325,-0.021133,0.830019,0.603903,-0.029485,0.809307,0.634826,-0.018673,0,1,0
463,'2026/05/14 11:50:49:376',2,0.767905,0.761967,-0.000001,0.717886,0.543534,-0.06069,0.712021,0.567821,-0.019608,0.715242,0.609065,-0.054516,0.751825,0.573452,-0.017832,0.747476,0.623567,-0.038632,0.791536,0.584365,-0.021744,0.774688,0.631644,-0.01944,0.829843,0.603564,-0.028243,0.807977,0.635725,-0.017542,0,1,0
464,'2026/05/14 11:50:49:406',2,0.768923,0.763163,-0.000001,0.717335,0.544056,-0.063285,0.711722,0.567798,-0.021049,0.714468,0.612179,-0.054693,0.751792,0.572781,-0.018942,0.74782,0.625239,-0.038638,0.791788,0.583878,-0.022455,0.77567,0.633133,-0.019746,0.830083,0.603632,-0.028589,0.809049,0.636279,-0.017643,0,1,0
465,'2026/05/14 11:50:49:456',2,0.7691,0.761013,-0.000001,0.716858,0.543093,-0.059391,0.710367,0.568436,-0.020931,0.714131,0.615672,-0.050641,0.751254,0.572745,-0.019409,0.747633,0.627051,-0.037559,0.791979,0.583327,-0.023203,0.775776,0.635671,-0.020294,0.830802,0.602778,-0.029438,0.808509,0.637148,-0.018408,0,1,0
466,'2026/05/14 11:50:49:486',2,0.768874,0.760023,-0.000001,0.719121,0.544566,-0.061446,0.710268,0.567354,-0.021148,0.714151,0.616223,-0.052421,0.751193,0.57107,-0.019227,0.747737,0.626842,-0.038262,0.791623,0.581539,-0.022845,0.77566,0.63348,-0.021128,0.830246,0.600742,-0.028961,0.808427,0.636008,-0.019273,0,1,0
467,'2026/05/14 11:50:49:516',2,0.76926,0.762774,-0.000001,0.718033,0.543705,-0.059241,0.712081,0.569227,-0.017309,0.715401,0.611433,-0.051432,0.752054,0.573955,-0.016006,0.748211,0.624804,-0.036102,0.791839,0.584565,-0.020369,0.775479,0.632906,-0.017382,0.83012,0.603733,-0.027255,0.809252,0.635411,-0.015164,0,1,0
468,'2026/05/14 11:50:49:553',2,0.769993,0.764054,-0.000001,0.720254,0.543979,-0.06333,0.713543,0.569546,-0.018894,0.714794,0.612655,-0.053998,0.753091,0.574414,-0.016695,0.748261,0.626754,-0.037612,0.792704,0.585229,-0.020318,0.77568,0.633154,-0.018312,0.830759,0.60443,-0.026552,0.809979,0.634751,-0.015384,0,1,0
469,'2026/05/14 11:50:49:585',2,0.769513,0.762471,-0.000001,0.718571,0.544446,-0.060193,0.710693,0.567238,-0.018603,0.713022,0.614835,-0.050624,0.751395,0.571321,-0.01686,0.7468,0.626183,-0.035811,0.791849,0.582076,-0.020717,0.774864,0.633915,-0.018069,0.830566,0.601963,-0.02711,0.808267,0.63605,-0.015855,0,1,0
470,'2026/05/14 11:50:49:614',2,0.769687,0.761895,-0.000001,0.71812,0.543234,-0.060491,0.71147,0.568868,-0.017194,0.712989,0.610672,-0.052093,0.751283,0.574358,-0.016175,0.747365,0.624955,-0.037479,0.791385,0.585062,-0.020941,0.775144,0.633516,-0.019817,0.829954,0.603668,-0.028188,0.808439,0.636342,-0.017422,0,1,0
471,'2026/05/14 11:50:49:646',2,0.76845,0.76375,-0.000001,0.718831,0.542431,-0.062343,0.712006,0.571233,-0.017803,0.714141,0.613361,-0.053589,0.752029,0.576711,-0.015982,0.747201,0.625916,-0.037864,0.791677,0.587406,-0.02013,0.774662,0.633558,-0.018684,0.829999,0.606431,-0.026911,0.808637,0.636245,-0.016388,0,1,0
472,'2026/05/14 11:50:49:677',2,0.768521,0.764813,-0.000001,0.721314,0.544206,-0.063364,0.712945,0.571084,-0.017839,0.714884,0.613708,-0.052211,0.75291,0.575826,-0.016127,0.74836,0.627546,-0.036799,0.792447,0.586688,-0.020341,0.775276,0.634533,-0.017808,0.830501,0.606557,-0.027201,0.808339,0.636169,-0.015382,0,1,0
473,'2026/05/14 11:50:49:710',2,0.76894,0.763834,-0.000001,0.717494,0.543353,-0.060174,0.711416,0.567854,-0.018419,0.713873,0.611677,-0.051961,0.751636,0.573179,-0.016948,0.74699,0.625293,-0.03692,0.791844,0.584372,-0.021071,0.774747,0.633593,-0.018441,0.830557,0.604259,-0.027723,0.808608,0.636344,-0.016406,0,1,0
474,'2026/05/14 11:50:49:742',2,0.769106,0.763042,-0.000001,0.717985,0.542769,-0.062294,0.711888,0.568543,-0.018799,0.712511,0.611632,-0.052267,0.751638,0.573987,-0.017352,0.74709,0.625376,-0.037922,0.791365,0.584786,-0.02171,0.775064,0.633749,-0.019952,0.829524,0.603636,-0.028629,0.808096,0.636564,-0.017773,0,1,0
475,'2026/05/14 11:50:49:775',2,0.768436,0.760517,-0.000001,0.719292,0.544291,-0.061451,0.711731,0.568244,-0.018702,0.712844,0.612298,-0.05168,0.751637,0.573353,-0.017231,0.746827,0.625566,-0.037235,0.79151,0.584371,-0.02142,0.774587,0.633507,-0.019355,0.829969,0.603956,-0.028143,0.807917,0.635896,-0.017561,0,1,0
476,'2026/05/14 11:50:49:805',2,0.768098,0.763648,-0.000001,0.717841,0.544191,-0.060633,0.711904,0.568232,-0.017928,0.713549,0.612074,-0.051384,0.752038,0.57345,-0.01621,0.74681,0.625643,-0.035953,0.791832,0.584569,-0.020209,0.774428,0.633775,-0.017188,0.830269,0.604353,-0.026804,0.807845,0.636677,-0.015166,0,1,0
477,'2026/05/14 11:50:49:855',2,0.767395,0.76166,-0.000001,0.718563,0.54468,-0.063031,0.709689,0.566545,-0.0216,0.711919,0.615195,-0.052783,0.750872,0.570215,-0.020094,0.747049,0.626317,-0.03887,0.79173,0.581559,-0.024051,0.775953,0.634005,-0.021151,0.83092,0.601765,-0.030522,0.808461,0.636838,-0.019488,0,1,0
478,'2026/05/14 11:50:49:891',2,0.769331,0.764594,-0.000001,0.718576,0.544602,-0.061913,0.711718,0.569974,-0.017595,0.713507,0.610632,-0.053634,0.751427,0.575246,-0.016231,0.747441,0.626043,-0.037613,0.791335,0.585909,-0.020725,0.774853,0.634472,-0.018917,0.829936,0.604943,-0.027781,0.80833,0.637154,-0.016526,0,1,0
479,'2026/05/14 11:50:49:921',2,0.767321,0.763302,-0.000001,0.716739,0.544439,-0.064031,0.709745,0.568463,-0.023181,0.711946,0.616731,-0.054646,0.75101,0.573486,-0.020366,0.745831,0.627646,-0.03941,0.791641,0.584784,-0.023141,0.774512,0.635583,-0.020816,0.830293,0.604693,-0.028575,0.808048,0.638454,-0.019035,0,1,0
480,'2026/05/14 11:50:49:953',2,0.767675,0.764787,-0.000001,0.719145,0.543945,-0.061694,0.712093,0.567809,-0.016461,0.712099,0.612451,-0.052196,0.752003,0.574203,-0.015598,0.747132,0.626905,-0.037006,0.792106,0.585705,-0.020565,0.775415,0.634977,-0.018924,0.830802,0.605041,-0.028017,0.808235,0.636493,-0.01527,0,1,0
481,'2026/05/14 11:50:49:984',2,0.768119,0.764409,-0.000001,0.718487,0.545194,-0.060312,0.711817,0.568735,-0.016788,0.713158,0.611925,-0.052639,0.751742,0.574147,-0.01599,0.747198,0.626761,-0.037039,0.791851,0.585336,-0.020948,0.774817,0.634925,-0.018536,0.830681,0.605161,-0.028434,0.807944,0.636617,-0.016233,0,1,0
482,'2026/05/14 11:50:50:016',2,0.767944,0.763675,-0.000001,0.718285,0.544752,-0.060698,0.711025,0.567597,-0.018689,0.712561,0.613542,-0.051976,0.751426,0.572748,-0.017309,0.746824,0.626479,-0.037268,0.791888,0.583838,-0.021566,0.775298,0.634254,-0.019898,0.830708,0.603271,-0.028275,0.808739,0.636503,-0.017245,0,1,0
483,'2026/05/14 11:50:50:055',2,0.767118,0.763571,-0.000001,0.717226,0.544551,-0.063149,0.710837,0.567633,-0.019404,0.712539,0.611698,-0.05422,0.750961,0.573435,-0.017796,0.746999,0.625604,-0.038862,0.791188,0.584717,-0.021969,0.774852,0.634133,-0.020572,0.829923,0.604176,-0.028698,0.807907,0.636833,-0.017943,0,1,0
484,'2026/05/14 11:50:50:078',2,0.767285,0.762086,-0.000001,0.717744,0.544925,-0.063533,0.710918,0.568762,-0.019535,0.71255,0.611937,-0.05308,0.751002,0.573777,-0.017878,0.746577,0.626571,-0.03797,0.790969,0.58486,-0.021956,0.773986,0.634347,-0.019805,0.829257,0.604422,-0.028612,0.80733,0.636883,-0.017765,0,1,0
485,'2026/05/14 11:50:50:112',2,0.768949,0.763825,-0.000001,0.717178,0.54446,-0.060759,0.712514,0.568689,-0.015703,0.711543,0.6114,-0.051187,0.751586,0.574811,-0.015273,0.746387,0.625712,-0.036965,0.791128,0.586022,-0.020675,0.774123,0.634547,-0.019202,0.82934,0.605144,-0.028501,0.807075,0.636715,-0.016244,0,1,0
486,'2026/05/14 11:50:50:142',2,0.768895,0.762778,-0.000001,0.716138,0.543937,-0.060884,0.709856,0.569403,-0.019895,0.712732,0.615091,-0.052067,0.750814,0.573751,-0.017823,0.746342,0.626755,-0.0368,0.791329,0.584416,-0.021501,0.774313,0.634904,-0.019444,0.830207,0.603777,-0.027764,0.807772,0.637393,-0.018031,0,1,0
487,'2026/05/14 11:50:50:176',2,0.767168,0.761375,-0.000001,0.716797,0.54437,-0.060352,0.710578,0.567314,-0.018746,0.712337,0.611501,-0.051158,0.750753,0.573113,-0.017465,0.746204,0.6254,-0.037299,0.791056,0.584543,-0.021732,0.774232,0.633776,-0.019662,0.82953,0.604116,-0.028482,0.808011,0.63687,-0.018045,0,1,0
488,'2026/05/14 11:50:50:209',2,0.767059,0.760411,-0.000001,0.717729,0.545119,-0.062054,0.709582,0.566939,-0.020594,0.711418,0.613322,-0.053129,0.749925,0.571665,-0.018927,0.74597,0.626262,-0.038512,0.790345,0.582655,-0.022763,0.774276,0.633804,-0.021238,0.829052,0.601968,-0.029074,0.806968,0.636529,-0.018901,0,1,0
489,'2026/05/14 11:51:07:359',3,0.770581,0.944071,-0.000001,0.756111,0.632853,-0.044456,0.756553,0.696336,-0.009862,0.741525,0.481191,-0.062029,0.80207,0.714253,-0.015581,0.751309,0.780458,-0.06958,0.840778,0.744043,-0.025205,0.77424,0.835767,-0.049782,0.875093,0.784845,-0.036819,0.797567,0.854211,-0.06122,0,0,1
490,'2026/05/14 11:51:07:392',3,0.772204,0.943614,-0.000001,0.759205,0.646251,-0.048662,0.756948,0.697126,-0.012239,0.740994,0.482044,-0.066103,0.802476,0.71471,-0.017933,0.752062,0.77919,-0.072793,0.841265,0.744114,-0.027473,0.775495,0.835126,-0.052711,0.875874,0.784416,-0.039025,0.797276,0.852311,-0.063394,0,0,1
491,'2026/05/14 11:51:07:420',3,0.772042,0.945066,0,0.760814,0.651629,-0.054518,0.755711,0.697086,-0.013289,0.742252,0.481609,-0.067712,0.801646,0.7143,-0.018824,0.752259,0.778377,-0.075944,0.840912,0.743358,-0.028339,0.774695,0.836547,-0.055829,0.875635,0.783209,-0.039942,0.798279,0.851479,-0.064588,0,0,1
492,'2026/05/14 11:51:07:454',3,0.77168,0.942635,-0.000001,0.756955,0.640142,-0.045399,0.757994,0.697441,-0.012171,0.74166,0.48199,-0.064398,0.803237,0.715255,-0.017873,0.751394,0.780438,-0.070716,0.841486,0.744835,-0.027403,0.775254,0.836723,-0.051555,0.875582,0.785104,-0.038888,0.795941,0.853048,-0.062969,0,0,1
493,'2026/05/14 11:51:07:487',3,0.772601,0.947221,0,0.761103,0.65236,-0.054041,0.757273,0.69495,-0.010206,0.744642,0.481332,-0.062406,0.803189,0.711846,-0.015209,0.753122,0.777144,-0.070732,0.842653,0.740526,-0.024302,0.774157,0.836053,-0.050955,0.877271,0.78028,-0.035557,0.798377,0.85148,-0.059358,0,0,1
494,'2026/05/14 11:51:07:519',3,0.773564,0.946306,0,0.760362,0.653518,-0.057196,0.75686,0.695464,-0.012448,0.743947,0.481515,-0.067416,0.803227,0.712991,-0.017686,0.753305,0.776766,-0.075837,0.84274,0.741911,-0.026966,0.77375,0.834341,-0.055281,0.877227,0.781651,-0.038422,0.798871,0.8502,-0.063821,0,0,1
495,'2026/05/14 11:51:07:556',3,0.772906,0.943579,-0.000001,0.755889,0.632443,-0.042226,0.758193,0.697268,-0.009252,0.741476,0.482273,-0.06021,0.803045,0.715009,-0.015032,0.751587,0.780549,-0.067667,0.841278,0.744498,-0.024823,0.775692,0.835112,-0.049028,0.876022,0.785322,-0.036592,0.796537,0.853042,-0.061992,0,0,1
496,'2026/05/14 11:51:07:593',3,0.773845,0.944041,-0.000001,0.75891,0.651003,-0.050999,0.756849,0.695404,-0.012138,0.742869,0.480553,-0.06503,0.80338,0.712303,-0.017449,0.751576,0.778229,-0.071816,0.842673,0.741455,-0.026668,0.774758,0.832644,-0.052144,0.877145,0.782019,-0.037972,0.801814,0.853829,-0.064106,0,0,1
497,'2026/05/14 11:51:07:623',3,0.774068,0.944585,0,0.761778,0.659599,-0.05521,0.756445,0.695699,-0.013221,0.743896,0.480557,-0.067467,0.803132,0.712484,-0.018643,0.752698,0.777492,-0.075197,0.842812,0.741441,-0.027896,0.774792,0.833298,-0.054676,0.877745,0.781757,-0.039261,0.798882,0.851298,-0.064709,0,0,1
498,'2026/05/14 11:51:07:666',3,0.773026,0.94546,0,0.760077,0.649839,-0.051535,0.756554,0.697072,-0.012174,0.743748,0.481222,-0.066335,0.802491,0.714053,-0.017822,0.753877,0.780093,-0.073848,0.84172,0.742999,-0.027396,0.776468,0.837009,-0.053311,0.876346,0.782836,-0.039033,0.799602,0.852325,-0.062808,0,0,1
499,'2026/05/14 11:51:07:702',3,0.773392,0.9438,-0.000001,0.75716,0.635479,-0.046243,0.757144,0.695055,-0.010249,0.743212,0.480521,-0.062279,0.803271,0.712594,-0.015696,0.7514,0.779966,-0.069711,0.842357,0.742,-0.025129,0.775537,0.833587,-0.049975,0.876933,0.78261,-0.036634,0.800924,0.852994,-0.062368,0,0,1
500,'2026/05/14 11:51:07:734',3,0.772864,0.945456,0,0.761735,0.647648,-0.050026,0.757156,0.695484,-0.01028,0.744647,0.480897,-0.062313,0.802949,0.712799,-0.015658,0.753093,0.77882,-0.070517,0.842341,0.741896,-0.025074,0.775387,0.836103,-0.050621,0.877304,0.78202,-0.03658,0.798817,0.85088,-0.059858,0,0,1
501,'2026/05/14 11:51:07:764',3,0.774044,0.94491,0,0.761734,0.662069,-0.055941,0.757289,0.696206,-0.01352,0.744001,0.481127,-0.067315,0.803674,0.713056,-0.018847,0.753412,0.777378,-0.074975,0.843212,0.741952,-0.028001,0.774887,0.83495,-0.054811,0.877953,0.781931,-0.03925,0.799167,0.852231,-0.064038,0,0,1
502,'2026/05/14 11:51:07:796',3,0.773836,0.944643,0,0.76048,0.654005,-0.05087,0.756934,0.696958,-0.011727,0.742433,0.48051,-0.064855,0.80268,0.713446,-0.017334,0.753656,0.779116,-0.071991,0.842005,0.74218,-0.026796,0.775911,0.836075,-0.051679,0.877166,0.782026,-0.03832,0.797706,0.852033,-0.061682,0,0,1
503,'2026/05/14 11:51:07:826',3,0.773347,0.945651,0,0.762364,0.651959,-0.054371,0.757946,0.695736,-0.010926,0.744177,0.481234,-0.063733,0.804012,0.712371,-0.01569,0.75372,0.778056,-0.070955,0.843585,0.740711,-0.024562,0.773813,0.835967,-0.050207,0.878271,0.780228,-0.035651,0.798245,0.852742,-0.059164,0,0,1
504,'2026/05/14 11:51:07:858',3,0.772819,0.94624,0,0.761322,0.651006,-0.053862,0.758764,0.69557,-0.010518,0.744551,0.481943,-0.063756,0.804603,0.712424,-0.015531,0.753172,0.778493,-0.070862,0.843747,0.741233,-0.024661,0.773754,0.83545,-0.0499,0.877911,0.781362,-0.036006,0.799463,0.850841,-0.058397,0,0,1
505,'2026/05/14 11:51:07:890',3,0.774081,0.945536,-0.000001,0.75902,0.644346,-0.046691,0.75747,0.694676,-0.00941,0.742895,0.480168,-0.061045,0.803991,0.711559,-0.014792,0.751652,0.779126,-0.068452,0.843316,0.740629,-0.024267,0.774876,0.835001,-0.049724,0.878036,0.780818,-0.035832,0.798506,0.852872,-0.061414,0,0,1
506,'2026/05/14 11:51:07:921',3,0.774207,0.944703,0,0.760277,0.649331,-0.053225,0.758906,0.695794,-0.012114,0.744928,0.48151,-0.063468,0.804661,0.71247,-0.017036,0.753179,0.779149,-0.070777,0.843888,0.740912,-0.025911,0.774099,0.836813,-0.050935,0.878471,0.780867,-0.036953,0.799218,0.854066,-0.061117,0,0,1
507,'2026/05/14 11:51:07:953',3,0.773886,0.945167,-0.000001,0.758184,0.644314,-0.047842,0.758517,0.697099,-0.011358,0.742437,0.48004,-0.064745,0.80424,0.714118,-0.016951,0.752535,0.779767,-0.071255,0.843184,0.743249,-0.026522,0.775528,0.835489,-0.051132,0.878009,0.783604,-0.038186,0.798161,0.852092,-0.062853,0,0,1
508,'2026/05/14 11:51:07:985',3,0.774097,0.944422,0,0.76251,0.660426,-0.055267,0.757467,0.695302,-0.013237,0.743294,0.478747,-0.067621,0.804366,0.712188,-0.018821,0.752736,0.778696,-0.074977,0.844038,0.741473,-0.02821,0.77569,0.834507,-0.054508,0.87863,0.781985,-0.039703,0.800493,0.853466,-0.065125,0,0,1
509,'2026/05/14 11:51:08:016',3,0.774364,0.943896,-0.000001,0.761627,0.64964,-0.049119,0.759269,0.696013,-0.010576,0.744388,0.48127,-0.062388,0.805048,0.713042,-0.015871,0.753032,0.778998,-0.069024,0.844044,0.742212,-0.025132,0.774194,0.83565,-0.049107,0.878621,0.783046,-0.036478,0.798407,0.853119,-0.060218,0,0,1
510,'2026/05/14 11:51:08:047',3,0.776117,0.944638,-0.000001,0.761854,0.65591,-0.052871,0.760836,0.694619,-0.012748,0.743833,0.479386,-0.066432,0.807201,0.711177,-0.017821,0.753689,0.777777,-0.07277,0.846318,0.740162,-0.026922,0.776154,0.836293,-0.05363,0.880582,0.780998,-0.038203,0.799907,0.853973,-0.065437,0,0,1
511,'2026/05/14 11:51:08:079',3,0.772743,0.940693,-0.000001,0.757268,0.630697,-0.042799,0.759544,0.696431,-0.011,0.74295,0.47965,-0.062879,0.804843,0.714146,-0.016305,0.753584,0.782954,-0.068853,0.84333,0.743777,-0.025576,0.776509,0.836949,-0.048601,0.87763,0.78412,-0.036948,0.800294,0.855996,-0.061545,0,0,1
512,'2026/05/14 11:51:08:111',3,0.774392,0.941673,-0.000001,0.758609,0.635909,-0.045265,0.760164,0.69658,-0.012191,0.743444,0.480268,-0.065383,0.805752,0.714341,-0.017384,0.754469,0.782351,-0.070936,0.844376,0.743678,-0.026502,0.777337,0.836032,-0.049968,0.878817,0.783737,-0.037803,0.799734,0.854838,-0.062984,0,0,1
513,'2026/05/14 11:51:08:141',3,0.774099,0.943319,-0.000001,0.758125,0.632439,-0.043816,0.759916,0.695232,-0.010001,0.743751,0.480352,-0.061621,0.805536,0.712836,-0.015553,0.753759,0.781277,-0.068854,0.844337,0.742403,-0.025117,0.777079,0.836004,-0.049567,0.878792,0.78297,-0.036756,0.801897,0.856512,-0.062427,0,0,1
514,'2026/05/14 11:51:08:178',3,0.77518,0.94281,-0.000001,0.759468,0.636195,-0.043935,0.761123,0.696305,-0.011573,0.743462,0.479337,-0.065213,0.806563,0.714062,-0.01706,0.754585,0.783493,-0.07079,0.845013,0.74362,-0.026445,0.777513,0.837308,-0.049882,0.878881,0.78379,-0.037942,0.802397,0.856759,-0.063154,0,0,1
515,'2026/05/14 11:51:08:206',3,0.77474,0.942216,-0.000001,0.759511,0.638277,-0.046224,0.760755,0.692501,-0.011181,0.744619,0.478011,-0.063321,0.80764,0.710432,-0.016635,0.753313,0.780596,-0.070379,0.846856,0.740947,-0.026074,0.776783,0.836505,-0.051249,0.88085,0.782548,-0.037581,0.803111,0.855295,-0.063083,0,0,1
516,'2026/05/14 11:51:08:257',3,0.77403,0.941853,-0.000001,0.758733,0.634021,-0.044189,0.761274,0.695314,-0.010672,0.744377,0.480516,-0.061599,0.806718,0.712716,-0.016219,0.752818,0.782712,-0.068754,0.845314,0.742731,-0.025717,0.777539,0.83638,-0.049618,0.879482,0.783977,-0.037245,0.802323,0.857381,-0.062301,0,0,1
517,'2026/05/14 11:51:08:298',3,0.774816,0.942532,-0.000001,0.759592,0.633042,-0.044831,0.760031,0.694719,-0.011063,0.745096,0.478745,-0.06332,0.80598,0.71276,-0.016349,0.754788,0.783094,-0.069975,0.844871,0.742485,-0.025665,0.777452,0.836713,-0.049413,0.879232,0.782938,-0.037157,0.804024,0.856237,-0.062301,0,0,1
518,'2026/05/14 11:51:08:330',3,0.775537,0.942265,-0.000001,0.758032,0.635027,-0.044465,0.760948,0.697816,-0.011152,0.744698,0.480402,-0.062012,0.806745,0.714442,-0.016919,0.754115,0.782419,-0.069828,0.845342,0.743683,-0.026739,0.779228,0.837983,-0.050778,0.879932,0.784331,-0.038627,0.801076,0.855674,-0.063769,0,0,1
519,'2026/05/14 11:51:08:362',3,0.775715,0.94134,-0.000001,0.760379,0.634434,-0.043554,0.762548,0.696508,-0.010887,0.74493,0.480304,-0.063703,0.807968,0.714572,-0.01626,0.75566,0.783551,-0.069914,0.846319,0.744,-0.025589,0.777762,0.835898,-0.048889,0.880359,0.784001,-0.037036,0.801813,0.854707,-0.061425,0,0,1
520,'2026/05/14 11:51:08:391',3,0.776171,0.943287,-0.000001,0.763723,0.643912,-0.046763,0.761676,0.696289,-0.01167,0.745792,0.479546,-0.066185,0.807315,0.713848,-0.017252,0.756493,0.781792,-0.072799,0.846072,0.742838,-0.026706,0.778879,0.836494,-0.051873,0.880257,0.782571,-0.038276,0.801669,0.855045,-0.063442,0,0,1
521,'2026/05/14 11:51:08:420',3,0.776228,0.941218,-0.000001,0.758316,0.629995,-0.043908,0.761597,0.697309,-0.010863,0.745901,0.480437,-0.060499,0.807778,0.713918,-0.015943,0.75512,0.78374,-0.067896,0.84651,0.742658,-0.025108,0.779466,0.839344,-0.048924,0.881008,0.782586,-0.036366,0.799379,0.855659,-0.06109,0,0,1
522,'2026/05/14 11:51:08:454',3,0.775098,0.941735,-0.000001,0.759672,0.636206,-0.042783,0.762332,0.695203,-0.010284,0.74458,0.479872,-0.06196,0.808284,0.71266,-0.016045,0.754526,0.782604,-0.068584,0.847031,0.742844,-0.025823,0.77849,0.837809,-0.049441,0.881048,0.784011,-0.037614,0.806055,0.856779,-0.061772,0,0,1
523,'2026/05/14 11:51:08:482',3,0.776738,0.943512,-0.000001,0.762886,0.64944,-0.045555,0.762318,0.696236,-0.01176,0.744954,0.480058,-0.064326,0.808295,0.713623,-0.017079,0.755028,0.78177,-0.069811,0.847148,0.743155,-0.026311,0.778025,0.837135,-0.049841,0.881602,0.783999,-0.037603,0.802158,0.854422,-0.061768,0,0,1
524,'2026/05/14 11:51:08:513',3,0.774498,0.941973,-0.000001,0.757469,0.633823,-0.044876,0.761898,0.694985,-0.010716,0.743094,0.479095,-0.063424,0.807815,0.713042,-0.01594,0.753114,0.780862,-0.069832,0.846577,0.743376,-0.02538,0.777719,0.838884,-0.051167,0.880867,0.784404,-0.036871,0.804215,0.85624,-0.062717,0,0,1
525,'2026/05/14 11:51:08:545',3,0.776328,0.944459,-0.000001,0.762827,0.655169,-0.052256,0.761429,0.695295,-0.013296,0.744028,0.477709,-0.068445,0.808415,0.712115,-0.018765,0.753864,0.7806,-0.074832,0.847695,0.741591,-0.028306,0.777735,0.838674,-0.054615,0.881921,0.782503,-0.040021,0.803599,0.854751,-0.066374,0,0,1
526,'2026/05/14 11:51:08:577',3,0.775579,0.945591,-0.000001,0.760563,0.647447,-0.053904,0.761024,0.695151,-0.013595,0.744697,0.477298,-0.06965,0.807832,0.712351,-0.018594,0.752416,0.783546,-0.07587,0.847042,0.741514,-0.027721,0.775807,0.841214,-0.05501,0.881028,0.781703,-0.039138,0.802628,0.85803,-0.06713,0,0,1
527,'2026/05/14 11:51:08:607',3,0.773047,0.942363,-0.000001,0.758587,0.644205,-0.047621,0.759647,0.694211,-0.012834,0.743118,0.479717,-0.065828,0.806099,0.711888,-0.017737,0.751414,0.785187,-0.07135,0.845004,0.742069,-0.026625,0.774153,0.838631,-0.050335,0.878751,0.783338,-0.037681,0.80196,0.857994,-0.061954,0,0,1
528,'2026/05/14 11:51:08:658',3,0.773184,0.942447,-0.000001,0.756281,0.638598,-0.04511,0.757008,0.697137,-0.012452,0.740614,0.478942,-0.063442,0.803659,0.713115,-0.017893,0.750543,0.784668,-0.070728,0.842712,0.742646,-0.027452,0.777083,0.84128,-0.051806,0.877078,0.783819,-0.039062,0.801183,0.857215,-0.063325,0,0,1
529,'2026/05/14 11:51:08:688',3,0.771219,0.941193,0,0.75226,0.635417,-0.043603,0.757196,0.699128,-0.012941,0.741354,0.478486,-0.06528,0.802465,0.715471,-0.018284,0.750463,0.787065,-0.070871,0.840608,0.744463,-0.027638,0.77663,0.843125,-0.050654,0.874827,0.785197,-0.039056,0.797127,0.860346,-0.063773,0,0,1
530,'2026/05/14 11:51:08:718',3,0.771065,0.940321,-0.000001,0.75177,0.635271,-0.042535,0.757762,0.699298,-0.012607,0.740538,0.479934,-0.061995,0.803187,0.71478,-0.018058,0.749264,0.784958,-0.068679,0.841179,0.744682,-0.027422,0.776914,0.840011,-0.049665,0.874886,0.786678,-0.038762,0.797671,0.855519,-0.06118,0,0,1
531,'2026/05/14 11:51:08:750',3,0.770143,0.941263,-0.000001,0.753566,0.635088,-0.044354,0.756455,0.698525,-0.014194,0.737787,0.479473,-0.064513,0.802868,0.713829,-0.019274,0.74814,0.786466,-0.070451,0.841684,0.74366,-0.028312,0.7759,0.842616,-0.051072,0.875976,0.785504,-0.039403,0.797377,0.856573,-0.062466,0,0,1
532,'2026/05/14 11:51:08:781',3,0.76992,0.943331,-0.000001,0.751531,0.630984,-0.043112,0.755206,0.697176,-0.012717,0.73521,0.477545,-0.065189,0.801375,0.71412,-0.017806,0.747124,0.786349,-0.070919,0.84029,0.744021,-0.027034,0.773242,0.842388,-0.050914,0.875088,0.785117,-0.038363,0.79912,0.858099,-0.063706,0,0,1
533,'2026/05/14 11:51:08:818',3,0.770424,0.94109,-0.000001,0.752307,0.639741,-0.047467,0.755681,0.696476,-0.015516,0.735164,0.478153,-0.069194,0.802784,0.712488,-0.020237,0.746768,0.786281,-0.073193,0.841862,0.742559,-0.029099,0.772828,0.84306,-0.052957,0.876225,0.784193,-0.040157,0.797311,0.858403,-0.065041,0,0,1
534,'2026/05/14 11:51:08:846',3,0.770908,0.940992,-0.000001,0.75434,0.634462,-0.046415,0.754858,0.699404,-0.014922,0.736791,0.478839,-0.066119,0.801172,0.715047,-0.019666,0.748857,0.786161,-0.072622,0.84014,0.744345,-0.028437,0.775343,0.843013,-0.052756,0.874668,0.785351,-0.039314,0.795999,0.859015,-0.063188,0,0,1
535,'2026/05/14 11:51:08:880',3,0.771186,0.938759,-0.000001,0.755263,0.629791,-0.046507,0.7557,0.698079,-0.01579,0.73681,0.477612,-0.066164,0.801852,0.714191,-0.020165,0.750068,0.786844,-0.072085,0.840764,0.744645,-0.028519,0.777741,0.844567,-0.05293,0.875033,0.787141,-0.038927,0.797107,0.862914,-0.06445,0,0,1
536,'2026/05/14 11:51:08:911',3,0.771389,0.941079,0,0.753465,0.632055,-0.044412,0.755568,0.698431,-0.014319,0.737964,0.478189,-0.064885,0.802093,0.714023,-0.019155,0.751544,0.786561,-0.0704,0.84095,0.744022,-0.027994,0.77805,0.842272,-0.050658,0.87524,0.78625,-0.03889,0.797744,0.860855,-0.062098,0,0,1
537,'2026/05/14 11:51:08:944',3,0.772506,0.940328,-0.000001,0.755546,0.634015,-0.047246,0.756666,0.698688,-0.015433,0.737379,0.478675,-0.067199,0.802989,0.714725,-0.020322,0.750636,0.787014,-0.073414,0.84177,0.745053,-0.029196,0.777467,0.842756,-0.053068,0.876034,0.787317,-0.040119,0.798046,0.858918,-0.063784,0,0,1
538,'2026/05/14 11:51:08:975',3,0.771926,0.937616,-0.000001,0.754152,0.631083,-0.046128,0.756378,0.70014,-0.015517,0.737581,0.47873,-0.065742,0.802276,0.715117,-0.02013,0.750786,0.786167,-0.071655,0.840994,0.745095,-0.028771,0.777655,0.844171,-0.052255,0.875303,0.787051,-0.039456,0.799482,0.86062,-0.063553,0,0,1
539,'2026/05/14 11:51:09:026',3,0.771423,0.938878,-0.000001,0.754216,0.63063,-0.046497,0.754581,0.698973,-0.015395,0.735536,0.477301,-0.065879,0.80106,0.714693,-0.019901,0.749886,0.785184,-0.072062,0.840112,0.745098,-0.028462,0.777319,0.844575,-0.05328,0.87451,0.787359,-0.039023,0.798811,0.862223,-0.064378,0,0,1
540,'2026/05/14 11:51:09:065',3,0.771746,0.940571,-0.000001,0.753726,0.634317,-0.04468,0.754205,0.697462,-0.015713,0.734079,0.476437,-0.064323,0.800922,0.712958,-0.019878,0.749004,0.785892,-0.070451,0.840164,0.74312,-0.027905,0.777084,0.843221,-0.052844,0.874647,0.785435,-0.037928,0.796037,0.86225,-0.065148,0,0,1
541,'2026/05/14 11:51:09:095',3,0.769775,0.943295,-0.000001,0.748327,0.626536,-0.047058,0.753304,0.69685,-0.015279,0.732158,0.477338,-0.068883,0.800407,0.713598,-0.019629,0.746448,0.784786,-0.07286,0.839944,0.743728,-0.028217,0.77373,0.84353,-0.053487,0.875103,0.785194,-0.038986,0.796807,0.859399,-0.065642,0,0,1
542,'2026/05/14 11:51:09:125',3,0.769409,0.94409,-0.000001,0.747456,0.622901,-0.048004,0.752381,0.696726,-0.016195,0.731894,0.477322,-0.069107,0.799566,0.713093,-0.019788,0.746743,0.784814,-0.072628,0.839519,0.742916,-0.027698,0.775459,0.845393,-0.054173,0.875043,0.783593,-0.037909,0.799161,0.859367,-0.066337,0,0,1
543,'2026/05/14 11:51:09:155',3,0.770086,0.943589,-0.000001,0.748814,0.6264,-0.048299,0.752179,0.696376,-0.016807,0.729643,0.477073,-0.069884,0.799622,0.712118,-0.020375,0.746357,0.784873,-0.07263,0.839656,0.742142,-0.028269,0.774558,0.845556,-0.054376,0.874771,0.783549,-0.038531,0.797501,0.860205,-0.06744,0,0,1
544,'2026/05/14 11:51:09:187',3,0.770114,0.94078,-0.000001,0.747893,0.628711,-0.05044,0.750778,0.697185,-0.017926,0.73143,0.475855,-0.068781,0.798628,0.712635,-0.021206,0.744942,0.787818,-0.072688,0.838724,0.742597,-0.028755,0.773161,0.848807,-0.055387,0.873732,0.783933,-0.038538,0.795059,0.86304,-0.068385,0,0,1
545,'2026/05/14 11:51:09:220',3,0.769572,0.942109,-0.000001,0.747072,0.634613,-0.05104,0.7497,0.697331,-0.019724,0.728645,0.476096,-0.072592,0.797935,0.712719,-0.023173,0.743479,0.785537,-0.07521,0.838155,0.742932,-0.030798,0.772144,0.846499,-0.057582,0.873068,0.784455,-0.040659,0.794435,0.861802,-0.070697,0,0,1
546,'2026/05/14 11:51:09:261',3,0.768534,0.94235,-0.000001,0.747582,0.637373,-0.04824,0.749592,0.697428,-0.017001,0.728157,0.47676,-0.068277,0.797332,0.712743,-0.020972,0.743673,0.786453,-0.072512,0.837312,0.74287,-0.029053,0.772535,0.845836,-0.055007,0.872178,0.784693,-0.0393,0.794693,0.86243,-0.06761,0,0,1
547,'2026/05/14 11:51:09:299',3,0.768434,0.942019,-0.000001,0.746929,0.638151,-0.046762,0.748585,0.697552,-0.017111,0.728207,0.477,-0.067154,0.796633,0.712664,-0.020948,0.74363,0.786402,-0.071441,0.836903,0.742418,-0.028818,0.772046,0.848212,-0.055053,0.871905,0.783555,-0.03877,0.794328,0.863122,-0.067609,0,0,1
548,'2026/05/14 11:51:09:332',3,0.766831,0.939669,-0.000001,0.745261,0.634675,-0.047692,0.748666,0.698762,-0.016403,0.729605,0.47804,-0.065423,0.795994,0.713385,-0.020463,0.744832,0.786968,-0.070698,0.83601,0.742651,-0.028535,0.772604,0.847474,-0.05419,0.871163,0.78362,-0.038678,0.792819,0.862741,-0.065998,0,0,1
549,'2026/05/14 11:51:09:360',3,0.768017,0.942039,-0.000001,0.745711,0.635549,-0.047325,0.748986,0.698389,-0.016773,0.728657,0.477312,-0.0666,0.796647,0.712768,-0.020704,0.744147,0.786327,-0.071441,0.836531,0.742103,-0.028685,0.772213,0.846175,-0.054845,0.871179,0.78332,-0.03882,0.792286,0.863634,-0.067488,0,0,1
550,'2026/05/14 11:51:09:392',3,0.767671,0.942361,-0.000001,0.746402,0.637849,-0.048833,0.749132,0.696689,-0.017708,0.727831,0.476561,-0.069571,0.796974,0.711867,-0.021547,0.743163,0.785633,-0.073162,0.836909,0.741963,-0.029468,0.77204,0.844155,-0.055371,0.871549,0.783805,-0.039587,0.79245,0.861258,-0.068038,0,0,1
551,'2026/05/14 11:51:09:425',3,0.767736,0.939317,-0.000001,0.745658,0.63548,-0.049189,0.748679,0.698632,-0.017139,0.73006,0.47869,-0.067114,0.796054,0.713033,-0.020875,0.744535,0.785896,-0.071892,0.836029,0.742366,-0.028748,0.771983,0.847799,-0.05542,0.871175,0.783356,-0.038726,0.793745,0.863581,-0.067436,0,0,1
552,'2026/05/14 11:51:09:453',3,0.767381,0.939016,-0.000001,0.746931,0.635452,-0.048371,0.74893,0.698003,-0.015805,0.729975,0.477314,-0.065604,0.796549,0.712587,-0.019889,0.744193,0.787827,-0.070686,0.836542,0.741934,-0.028089,0.770248,0.846299,-0.053725,0.871462,0.782698,-0.03837,0.791565,0.860769,-0.065582,0,0,1
553,'2026/05/14 11:51:09:486',3,0.768757,0.940459,-0.000001,0.745062,0.631209,-0.046958,0.749542,0.697941,-0.016683,0.73046,0.477389,-0.065873,0.797473,0.71252,-0.020114,0.743681,0.78853,-0.069885,0.837598,0.741756,-0.027709,0.771628,0.848891,-0.053429,0.872574,0.782314,-0.037486,0.793881,0.862791,-0.06722,0,0,1
554,'2026/05/14 11:51:09:517',3,0.766588,0.939668,-0.000001,0.7455,0.635335,-0.048693,0.749398,0.698714,-0.016968,0.730052,0.478325,-0.066185,0.796676,0.713539,-0.020738,0.743822,0.78653,-0.071236,0.836404,0.742823,-0.028515,0.772205,0.845478,-0.054743,0.871233,0.783951,-0.0384,0.791655,0.86355,-0.06703,0,0,1
555,'2026/05/14 11:51:09:549',3,0.767237,0.940811,-0.000001,0.745202,0.633545,-0.048163,0.749202,0.697913,-0.016457,0.729775,0.477634,-0.065912,0.796805,0.712675,-0.020148,0.742364,0.78932,-0.070406,0.836779,0.742211,-0.027993,0.770871,0.848086,-0.053597,0.87181,0.783012,-0.037998,0.793106,0.861861,-0.066379,0,0,1
556,'2026/05/14 11:51:09:581',3,0.766714,0.943876,-0.000001,0.746281,0.636849,-0.045256,0.749446,0.698025,-0.014414,0.727651,0.478704,-0.064166,0.796581,0.713239,-0.018618,0.742706,0.786448,-0.069195,0.836647,0.743015,-0.026899,0.77199,0.845939,-0.052505,0.871735,0.784235,-0.037296,0.79504,0.861156,-0.06544,0,0,1
557,'2026/05/14 11:51:09:616',3,0.766599,0.942055,-0.000001,0.745111,0.641356,-0.048016,0.749392,0.697467,-0.015125,0.728709,0.478616,-0.065832,0.796873,0.713147,-0.019569,0.74174,0.78459,-0.071516,0.836957,0.742477,-0.028036,0.769405,0.844,-0.054574,0.87219,0.782849,-0.038589,0.791722,0.859509,-0.066437,0,0,1
558,'2026/05/14 11:51:09:654',3,0.765786,0.939863,-0.000001,0.745575,0.636747,-0.045396,0.748982,0.698238,-0.014835,0.72957,0.479288,-0.063277,0.795944,0.713221,-0.019014,0.743299,0.787265,-0.068667,0.835674,0.742629,-0.027128,0.77011,0.844627,-0.05177,0.870595,0.783722,-0.037304,0.790866,0.861047,-0.063489,0,0,1
559,'2026/05/14 11:51:09:690',3,0.766108,0.941462,-0.000001,0.744459,0.635186,-0.043873,0.749384,0.698806,-0.014041,0.730229,0.48013,-0.061965,0.796361,0.714017,-0.018613,0.742779,0.788364,-0.068574,0.83595,0.743283,-0.027157,0.77066,0.845847,-0.05232,0.870788,0.784272,-0.037731,0.791223,0.860952,-0.064243,0,0,1
560,'2026/05/14 11:51:09:720',3,0.767157,0.940269,-0.000001,0.744236,0.638738,-0.047373,0.748905,0.69961,-0.016487,0.730113,0.478937,-0.065725,0.79626,0.713706,-0.020603,0.743245,0.787448,-0.07091,0.836028,0.742413,-0.028677,0.770811,0.845812,-0.054206,0.870627,0.782831,-0.038847,0.792007,0.86257,-0.066467,0,0,1
561,'2026/05/14 11:51:09:748',3,0.766508,0.93995,-0.000001,0.749079,0.652242,-0.050687,0.747893,0.6991,-0.016337,0.730798,0.477176,-0.065298,0.79578,0.712816,-0.020827,0.742629,0.786624,-0.071758,0.836065,0.74171,-0.029146,0.770064,0.846688,-0.054781,0.870924,0.782743,-0.039469,0.790062,0.86152,-0.065311,0,0,1
562,'2026/05/14 11:51:09:781',3,0.765412,0.941315,-0.000001,0.747895,0.635738,-0.043178,0.749364,0.697457,-0.012863,0.730685,0.479526,-0.060769,0.796059,0.712838,-0.017543,0.742038,0.789607,-0.067629,0.835627,0.742394,-0.026171,0.769337,0.844137,-0.050226,0.870428,0.783756,-0.036802,0.790754,0.860765,-0.061648,0,0,1
563,'2026/05/14 11:51:09:811',3,0.767033,0.941523,-0.000001,0.746011,0.638913,-0.047484,0.749491,0.698352,-0.015323,0.728637,0.479293,-0.066478,0.796404,0.714074,-0.019877,0.741612,0.785809,-0.072044,0.836085,0.743161,-0.02844,0.769926,0.843952,-0.053898,0.871383,0.783484,-0.039103,0.793325,0.858863,-0.065899,0,0,1
564,'2026/05/14 11:51:09:855',3,0.766364,0.939665,-0.000001,0.745553,0.637501,-0.047483,0.749792,0.698385,-0.015671,0.730508,0.479633,-0.064975,0.797145,0.713299,-0.02001,0.743649,0.786483,-0.070764,0.836903,0.742615,-0.028313,0.770605,0.84464,-0.053659,0.871538,0.78353,-0.038677,0.791085,0.859498,-0.064941,0,0,1
565,'2026/05/14 11:51:09:890',3,0.766867,0.940745,-0.000001,0.744524,0.635185,-0.045711,0.75026,0.698661,-0.014267,0.730739,0.479761,-0.062854,0.797048,0.713763,-0.018704,0.742949,0.787359,-0.069667,0.836554,0.742666,-0.02714,0.770551,0.845109,-0.052832,0.871307,0.782956,-0.037655,0.791465,0.860412,-0.064211,0,0,1
566,'2026/05/14 11:51:09:922',3,0.767511,0.942132,-0.000001,0.746081,0.639172,-0.047047,0.750778,0.698693,-0.014586,0.730479,0.479187,-0.064829,0.79793,0.714214,-0.019314,0.742155,0.786338,-0.071146,0.837753,0.743455,-0.028038,0.769689,0.845542,-0.053654,0.872759,0.783651,-0.03885,0.794161,0.859175,-0.065616,0,0,1
567,'2026/05/14 11:51:09:952',3,0.767429,0.939713,-0.000001,0.748638,0.657917,-0.051633,0.750107,0.699922,-0.016268,0.731626,0.479181,-0.066081,0.797501,0.714179,-0.021209,0.744282,0.786359,-0.072756,0.837323,0.743109,-0.029921,0.771125,0.845421,-0.055853,0.872009,0.783848,-0.040622,0.790214,0.859742,-0.066777,0,0,1
568,'2026/05/14 11:51:09:983',3,0.766748,0.937768,-0.000001,0.748838,0.641746,-0.046641,0.749493,0.698371,-0.014914,0.732645,0.478305,-0.063788,0.796639,0.712401,-0.019245,0.743318,0.787346,-0.069571,0.836233,0.741262,-0.027573,0.768763,0.843886,-0.052216,0.870893,0.781669,-0.037988,0.789521,0.857883,-0.063834,0,0,1
569,'2026/05/14 11:51:10:015',3,0.766809,0.939786,-0.000001,0.744632,0.63787,-0.047487,0.749893,0.698883,-0.014725,0.732086,0.47966,-0.063841,0.797036,0.713727,-0.019222,0.742734,0.787244,-0.06997,0.836718,0.742555,-0.027705,0.769774,0.844266,-0.053198,0.871512,0.782825,-0.038261,0.790962,0.859298,-0.065209,0,0,1
570,'2026/05/14 11:51:10:049',3,0.765779,0.939245,-0.000001,0.744587,0.6343,-0.046095,0.749307,0.700165,-0.014656,0.732326,0.480995,-0.063608,0.795875,0.715191,-0.019187,0.741826,0.787666,-0.069486,0.835339,0.743696,-0.02772,0.769342,0.844694,-0.052481,0.870493,0.783308,-0.038334,0.790524,0.859492,-0.065501,0,0,1
571,'2026/05/14 11:51:10:078',3,0.76742,0.939604,-0.000001,0.746374,0.656521,-0.050649,0.749714,0.699167,-0.015413,0.732561,0.479952,-0.065244,0.797196,0.712743,-0.02021,0.742215,0.785924,-0.071845,0.83709,0.740852,-0.028855,0.769144,0.844912,-0.055339,0.871654,0.780589,-0.039501,0.790423,0.858539,-0.066467,0,0,1
572,'2026/05/14 11:51:10:111',3,0.767134,0.939936,-0.000001,0.745435,0.646947,-0.046748,0.749926,0.699944,-0.013885,0.731969,0.479436,-0.062294,0.796894,0.714115,-0.018706,0.740745,0.788564,-0.069589,0.836468,0.742275,-0.027456,0.769243,0.844792,-0.052936,0.871351,0.781903,-0.038223,0.790198,0.860168,-0.065234,0,0,1
573,'2026/05/14 11:51:10:140',3,0.766319,0.941933,-0.000001,0.744348,0.640453,-0.044183,0.751138,0.699048,-0.012159,0.730829,0.480341,-0.06103,0.797489,0.714583,-0.017484,0.740882,0.786263,-0.068521,0.836789,0.743638,-0.026756,0.768493,0.845355,-0.052005,0.871608,0.7838,-0.037988,0.791856,0.85806,-0.063908,0,0,1
574,'2026/05/14 11:51:10:173',3,0.767294,0.940082,-0.000001,0.744992,0.639105,-0.044839,0.752272,0.699015,-0.013597,0.731312,0.479389,-0.062521,0.798699,0.714235,-0.018361,0.740746,0.787381,-0.068613,0.837908,0.742971,-0.027106,0.768836,0.844857,-0.051244,0.872702,0.782816,-0.037951,0.793121,0.858404,-0.064173,0,0,1
575,'2026/05/14 11:51:10:205',3,0.766221,0.941173,-0.000001,0.743114,0.633373,-0.04631,0.750704,0.698778,-0.01241,0.731377,0.480569,-0.061813,0.797063,0.714229,-0.017064,0.74146,0.787221,-0.068985,0.836339,0.742828,-0.025852,0.769459,0.845218,-0.051763,0.871178,0.782543,-0.036754,0.791392,0.86017,-0.063571,0,0,1
576,'2026/05/14 11:51:10:258',3,0.767143,0.939939,-0.000001,0.74525,0.636278,-0.044056,0.750562,0.698673,-0.013071,0.731271,0.480114,-0.06141,0.79761,0.714208,-0.01784,0.740475,0.787005,-0.068222,0.837263,0.743185,-0.026673,0.767374,0.846202,-0.051064,0.872483,0.783029,-0.037552,0.795658,0.85795,-0.062372,0,0,1
577,'2026/05/14 11:51:10:286',3,0.767704,0.939539,-0.000001,0.746439,0.646325,-0.047839,0.750211,0.699831,-0.015494,0.732126,0.478835,-0.065514,0.79761,0.713247,-0.020235,0.740438,0.789258,-0.071581,0.837281,0.741143,-0.028914,0.768033,0.847143,-0.054388,0.871895,0.780568,-0.03964,0.790451,0.859672,-0.066804,0,0,1
578,'2026/05/14 11:51:10:318',3,0.767551,0.938846,-0.000001,0.741969,0.63243,-0.044836,0.750144,0.698733,-0.013957,0.731761,0.479216,-0.062778,0.797099,0.713396,-0.01835,0.741357,0.791234,-0.069144,0.83654,0.741543,-0.026866,0.768968,0.847482,-0.05202,0.871694,0.780856,-0.037524,0.792977,0.858693,-0.06514,0,0,1
579,'2026/05/14 11:51:10:349',3,0.766939,0.940107,-0.000001,0.74285,0.636082,-0.045182,0.751177,0.698154,-0.013193,0.730617,0.479815,-0.062579,0.797679,0.713722,-0.017897,0.739956,0.790108,-0.069563,0.836979,0.742418,-0.026682,0.768162,0.845796,-0.051844,0.871969,0.782133,-0.037566,0.791963,0.858682,-0.064195,0,0,1
580,'2026/05/14 11:51:10:382',3,0.765945,0.939558,-0.000001,0.747338,0.643709,-0.045933,0.749709,0.700406,-0.014945,0.732161,0.479293,-0.064401,0.796406,0.714151,-0.019764,0.739861,0.789351,-0.070499,0.83586,0.742434,-0.028482,0.768253,0.84624,-0.052598,0.870706,0.782433,-0.039271,0.790178,0.858985,-0.064869,0,0,1
581,'2026/05/14 11:51:10:424',3,0.76626,0.940862,-0.000001,0.744782,0.635912,-0.044425,0.749992,0.698542,-0.013039,0.730486,0.479957,-0.062132,0.796786,0.714104,-0.01796,0.740151,0.787997,-0.068658,0.836249,0.743098,-0.026917,0.767543,0.846689,-0.051726,0.871356,0.783372,-0.037881,0.790807,0.859656,-0.063536,0,0,1
582,'2026/05/14 11:51:10:464',3,0.767437,0.94067,-0.000001,0.74772,0.658962,-0.048756,0.750375,0.699779,-0.012731,0.732098,0.48,-0.062041,0.797166,0.713101,-0.01809,0.741323,0.788542,-0.070124,0.836991,0.740541,-0.027295,0.769006,0.845212,-0.053002,0.871968,0.779624,-0.038485,0.790553,0.859291,-0.064142,0,0,1
583,'2026/05/14 11:51:10:503',3,0.766685,0.941755,-0.000001,0.74401,0.641025,-0.04572,0.750823,0.697918,-0.013141,0.732418,0.479242,-0.063092,0.797633,0.712824,-0.018126,0.740434,0.787355,-0.069554,0.837024,0.741355,-0.027191,0.768644,0.844856,-0.052386,0.871891,0.781468,-0.038395,0.790455,0.858213,-0.065212,0,0,1
584,'2026/05/14 11:51:10:534',3,0.766229,0.940862,-0.000001,0.745208,0.660227,-0.052365,0.750133,0.699729,-0.015729,0.734266,0.478676,-0.066565,0.797476,0.713642,-0.020715,0.741527,0.787269,-0.073012,0.837311,0.74161,-0.029495,0.769575,0.844792,-0.055811,0.871926,0.781213,-0.04031,0.789136,0.859622,-0.067178,0,0,1
585,'2026/05/14 11:51:10:566',3,0.765718,0.942441,-0.000001,0.746283,0.643824,-0.045721,0.751172,0.699374,-0.012455,0.732376,0.478896,-0.061932,0.797594,0.7143,-0.017765,0.741029,0.787567,-0.069067,0.836853,0.742948,-0.027048,0.768805,0.845154,-0.051899,0.871609,0.78315,-0.038399,0.79034,0.858623,-0.064494,0,0,1
586,'2026/05/14 11:51:10:595',3,0.767053,0.940472,-0.000001,0.747723,0.652961,-0.049198,0.750144,0.699962,-0.016169,0.732943,0.478843,-0.067357,0.797441,0.71377,-0.020989,0.740934,0.788846,-0.073051,0.83703,0.74141,-0.029764,0.768259,0.846426,-0.05477,0.871834,0.780469,-0.040702,0.790406,0.859485,-0.066474,0,0,1
587,'2026/05/14 11:51:10:626',3,0.767438,0.939798,-0.000001,0.744631,0.645513,-0.047259,0.750416,0.699503,-0.015506,0.733162,0.478411,-0.066048,0.797289,0.713361,-0.020316,0.740465,0.791598,-0.071944,0.836643,0.741056,-0.029138,0.768829,0.847742,-0.053868,0.871275,0.780181,-0.04011,0.791607,0.859594,-0.066446,0,0,1
588,'2026/05/14 11:51:10:655',3,0.767125,0.939263,-0.000001,0.74356,0.649648,-0.047711,0.7514,0.697827,-0.014057,0.732336,0.477995,-0.063059,0.79838,0.711747,-0.01874,0.740011,0.790399,-0.069467,0.838052,0.739341,-0.027278,0.767875,0.846371,-0.051583,0.872895,0.778461,-0.037945,0.790427,0.859829,-0.06403,0,0,1
589,'2026/05/14 11:51:10:689',3,0.767669,0.937133,-0.000001,0.743008,0.645038,-0.046573,0.750891,0.698749,-0.014568,0.733804,0.478846,-0.063787,0.797741,0.712526,-0.019012,0.738376,0.790808,-0.069357,0.837075,0.740185,-0.027411,0.765592,0.848313,-0.052006,0.871828,0.779516,-0.037911,0.789128,0.860803,-0.065047,0,0,1
590,'2026/05/14 11:51:10:720',3,0.767443,0.938061,-0.000001,0.74382,0.648458,-0.04589,0.750071,0.697789,-0.011185,0.734266,0.479633,-0.060386,0.797211,0.711643,-0.016058,0.738455,0.786285,-0.067396,0.836573,0.738663,-0.025025,0.764772,0.843451,-0.049419,0.871155,0.776693,-0.036126,0.792154,0.857689,-0.060888,0,0,1
591,'2026/05/14 11:51:10:752',3,0.767602,0.936948,-0.000001,0.745843,0.648625,-0.047183,0.752188,0.69923,-0.013755,0.736271,0.480169,-0.063581,0.798427,0.712912,-0.018641,0.740331,0.787492,-0.069881,0.837455,0.739831,-0.027485,0.76688,0.844604,-0.052123,0.872132,0.778086,-0.038459,0.789694,0.85789,-0.063712,0,0,1
592,'2026/05/14 11:51:10:783',3,0.766135,0.937793,-0.000001,0.749807,0.658797,-0.050512,0.751914,0.699146,-0.014742,0.737293,0.481891,-0.065726,0.798419,0.713229,-0.020153,0.74034,0.783394,-0.072535,0.837212,0.741152,-0.029396,0.766851,0.840701,-0.054233,0.871168,0.78071,-0.040684,0.790684,0.857301,-0.065195,0,0,1
593,'2026/05/14 11:51:10:814',3,0.767423,0.93955,-0.000001,0.745154,0.652441,-0.04813,0.75335,0.69916,-0.012056,0.737381,0.481995,-0.063054,0.799392,0.714335,-0.017999,0.740638,0.7858,-0.070451,0.838073,0.7425,-0.027847,0.768066,0.842162,-0.052714,0.872174,0.781934,-0.039677,0.793468,0.858535,-0.065067,0,0,1
594,'2026/05/14 11:51:10:846',3,0.767235,0.937338,-0.000001,0.748899,0.638128,-0.043728,0.753627,0.699128,-0.012242,0.740606,0.481908,-0.061397,0.799202,0.714273,-0.017968,0.74167,0.784201,-0.069118,0.837612,0.742743,-0.027575,0.768473,0.840687,-0.050689,0.871737,0.782608,-0.039175,0.794542,0.857347,-0.062669,0,0,1
595,'2026/05/14 11:51:10:881',3,0.770493,0.939498,-0.000001,0.756092,0.673975,-0.052132,0.757321,0.701164,-0.014473,0.741307,0.483535,-0.066679,0.802623,0.714146,-0.021198,0.744928,0.785396,-0.074497,0.840936,0.741651,-0.031458,0.773303,0.841269,-0.055717,0.874439,0.781508,-0.043629,0.79144,0.858173,-0.066801,0,0,1
596,'2026/05/14 11:51:10:911',3,0.771647,0.937949,-0.000001,0.754775,0.651622,-0.046089,0.758649,0.701672,-0.013502,0.744115,0.484437,-0.063265,0.803896,0.714979,-0.019278,0.746668,0.785477,-0.070098,0.842092,0.742454,-0.02875,0.773759,0.841732,-0.051738,0.87547,0.781762,-0.040227,0.794991,0.856887,-0.062939,0,0,1
597,'2026/05/14 11:51:10:943',3,0.771013,0.940107,-0.000001,0.756625,0.658532,-0.04856,0.759432,0.699779,-0.011655,0.744133,0.482444,-0.062097,0.804225,0.714108,-0.018274,0.745247,0.78389,-0.071452,0.842434,0.742048,-0.02859,0.772794,0.840604,-0.052871,0.876282,0.782011,-0.0408,0.795745,0.856461,-0.063768,0,0,1
598,'2026/05/14 11:51:10:974',3,0.771249,0.940932,-0.000001,0.758228,0.67009,-0.05215,0.757885,0.700236,-0.013092,0.744117,0.482481,-0.064923,0.803539,0.714077,-0.019345,0.745818,0.782815,-0.072419,0.842279,0.742187,-0.029312,0.772673,0.840359,-0.053453,0.876352,0.782219,-0.041235,0.795336,0.855308,-0.063288,0,0,1
599,'2026/05/14 11:51:11:007',3,0.769689,0.938396,-0.000001,0.754847,0.646846,-0.046388,0.757068,0.698734,-0.012704,0.745023,0.481317,-0.062846,0.80266,0.713029,-0.01846,0.74448,0.783856,-0.07024,0.840872,0.741162,-0.028065,0.770946,0.839957,-0.05152,0.874575,0.781383,-0.039739,0.792035,0.856106,-0.064128,0,0,1
600,'2026/05/14 11:51:11:057',3,0.768906,0.937446,-0.000001,0.75593,0.657944,-0.047955,0.757484,0.699927,-0.01261,0.743782,0.484381,-0.063575,0.802137,0.713792,-0.01875,0.743587,0.78647,-0.070615,0.83985,0.741719,-0.028505,0.770161,0.840492,-0.051073,0.872733,0.781534,-0.040189,0.793043,0.856815,-0.062705,0,0,1
601,'2026/05/14 11:51:11:099',3,0.769197,0.937402,0,0.755923,0.68295,-0.052786,0.755758,0.702731,-0.014279,0.742884,0.486815,-0.066298,0.800757,0.71517,-0.020789,0.745036,0.785401,-0.073724,0.839058,0.741843,-0.030811,0.7717,0.840176,-0.055219,0.87242,0.780507,-0.042754,0.79195,0.857634,-0.065207,0,0,1
602,'2026/05/14 11:51:11:128',3,0.768505,0.938468,-0.000001,0.757844,0.661518,-0.047025,0.756508,0.701562,-0.012074,0.742254,0.484676,-0.061772,0.800892,0.714893,-0.018345,0.744357,0.786697,-0.069153,0.838637,0.742074,-0.028137,0.770381,0.841331,-0.050266,0.871754,0.781367,-0.039848,0.789343,0.856616,-0.062176,0,0,1
603,'2026/05/14 11:51:11:160',3,0.768786,0.938193,-0.000001,0.760091,0.67515,-0.050705,0.754929,0.701759,-0.012589,0.742278,0.485126,-0.061974,0.79957,0.715291,-0.018878,0.745277,0.786161,-0.070279,0.837959,0.741893,-0.028534,0.770448,0.84009,-0.0514,0.871876,0.780119,-0.040018,0.78898,0.857487,-0.0627,0,0,1
604,'2026/05/14 11:51:11:192',3,0.76918,0.938788,-0.000001,0.757597,0.667368,-0.048485,0.755385,0.700675,-0.011341,0.741749,0.485368,-0.060265,0.800171,0.713819,-0.017755,0.74349,0.78356,-0.069675,0.838167,0.741041,-0.027724,0.770216,0.839369,-0.051829,0.871153,0.780318,-0.039526,0.792221,0.855943,-0.062538,0,0,1
605,'2026/05/14 11:51:11:220',3,0.768038,0.937606,-0.000001,0.753731,0.673735,-0.049966,0.75587,0.701588,-0.012231,0.742251,0.488517,-0.061327,0.800164,0.714883,-0.018749,0.745017,0.78498,-0.070164,0.838242,0.741975,-0.028643,0.770698,0.839643,-0.052593,0.871537,0.781183,-0.040259,0.791336,0.857096,-0.062038,0,0,1
606,'2026/05/14 11:51:11:251',3,0.767642,0.938272,-0.000001,0.755293,0.659106,-0.048679,0.756522,0.700142,-0.011123,0.743149,0.486739,-0.061115,0.800924,0.714565,-0.017551,0.742462,0.782715,-0.069691,0.838343,0.742489,-0.027639,0.768394,0.838053,-0.051456,0.871084,0.782347,-0.039619,0.788972,0.855177,-0.063384,0,0,1
607,'2026/05/14 11:51:11:283',3,0.766342,0.936999,-0.000001,0.756472,0.67604,-0.047877,0.755293,0.701407,-0.010652,0.742995,0.488677,-0.0591,0.79974,0.715066,-0.017373,0.742881,0.784583,-0.06902,0.837495,0.742281,-0.02757,0.769543,0.839933,-0.051368,0.870222,0.780917,-0.039566,0.793326,0.855301,-0.060998,0,0,1
608,'2026/05/14 11:51:11:314',3,0.765644,0.937268,-0.000001,0.752764,0.675538,-0.050275,0.75491,0.702433,-0.012192,0.742111,0.489921,-0.062617,0.798698,0.715994,-0.019134,0.741964,0.785304,-0.071302,0.836267,0.743104,-0.029495,0.768641,0.840268,-0.053229,0.868979,0.78183,-0.041659,0.79101,0.856464,-0.063046,0,0,1
609,'2026/05/14 11:51:11:345',3,0.765208,0.940994,-0.000001,0.752973,0.674953,-0.050639,0.753436,0.702766,-0.010281,0.740415,0.489328,-0.060231,0.797294,0.716075,-0.017064,0.739015,0.783319,-0.06923,0.834859,0.743055,-0.027415,0.764549,0.838576,-0.050965,0.868165,0.782085,-0.039634,0.785201,0.855259,-0.062632,0,0,1
610,'2026/05/14 11:51:11:377',3,0.764133,0.939512,-0.000001,0.748599,0.676015,-0.05163,0.752223,0.701352,-0.011806,0.739816,0.488998,-0.062883,0.796331,0.715015,-0.018455,0.739072,0.785645,-0.07127,0.834081,0.742008,-0.02863,0.764659,0.840634,-0.053188,0.866864,0.780949,-0.040638,0.785716,0.858392,-0.06278,0,0,1
611,'2026/05/14 11:51:11:410',3,0.762974,0.940737,-0.000001,0.752283,0.665328,-0.047111,0.751618,0.702828,-0.010975,0.739138,0.489352,-0.060218,0.7953,0.715903,-0.017178,0.740221,0.787729,-0.067763,0.833037,0.742533,-0.026852,0.764626,0.843109,-0.048744,0.866418,0.78117,-0.038487,0.783333,0.858065,-0.059502,0,0,1
612,'2026/05/14 11:51:11:455',3,0.764247,0.938288,-0.000001,0.747956,0.670653,-0.048825,0.751815,0.701869,-0.010674,0.7378,0.49047,-0.059559,0.796569,0.714582,-0.016878,0.7371,0.786293,-0.068596,0.834513,0.740694,-0.026783,0.764986,0.842548,-0.051591,0.867171,0.777886,-0.038605,0.789068,0.858388,-0.061841,0,0,1
613,'2026/05/14 11:51:11:488',3,0.762913,0.938013,-0.000001,0.74883,0.667686,-0.048216,0.751852,0.701431,-0.011292,0.737212,0.489034,-0.062149,0.795943,0.7148,-0.017793,0.737276,0.78568,-0.070199,0.83338,0.741855,-0.02792,0.76399,0.841108,-0.051392,0.865893,0.780575,-0.039998,0.787574,0.856817,-0.06244,0,0,1
614,'2026/05/14 11:51:11:519',3,0.763155,0.940581,0,0.7513,0.67546,-0.051585,0.751591,0.702382,-0.010933,0.738494,0.488722,-0.062051,0.795452,0.715501,-0.017591,0.737903,0.785065,-0.07017,0.833148,0.742525,-0.027827,0.763075,0.840491,-0.050943,0.86638,0.781528,-0.040016,0.784288,0.856722,-0.062124,0,0,1
615,'2026/05/14 11:51:11:550',3,0.763752,0.938895,-0.000001,0.747062,0.663519,-0.046626,0.754247,0.70083,-0.010431,0.738936,0.488471,-0.06022,0.798315,0.714104,-0.016758,0.736675,0.785029,-0.068489,0.8356,0.741189,-0.02681,0.76448,0.841202,-0.050507,0.867975,0.77997,-0.03883,0.787943,0.856151,-0.061376,0,0,1
616,'2026/05/14 11:51:11:583',3,0.765173,0.9414,0,0.749858,0.664569,-0.048603,0.751673,0.703561,-0.011812,0.740047,0.485824,-0.062085,0.795793,0.717148,-0.018124,0.738391,0.786371,-0.069622,0.833461,0.743245,-0.027942,0.763391,0.840149,-0.050042,0.867027,0.780935,-0.039742,0.781598,0.858278,-0.062584,0,0,1
617,'2026/05/14 11:51:11:613',3,0.764077,0.938372,-0.000001,0.750665,0.668583,-0.049398,0.754022,0.700369,-0.011315,0.738882,0.489084,-0.06171,0.798208,0.713629,-0.017658,0.737475,0.783639,-0.069816,0.83556,0.740705,-0.027675,0.763813,0.839762,-0.051624,0.867961,0.779484,-0.039663,0.786334,0.85734,-0.063294,0,0,1
618,'2026/05/14 11:51:11:647',3,0.762525,0.938228,-0.000001,0.747992,0.656497,-0.044645,0.753141,0.700381,-0.008508,0.73962,0.489549,-0.056525,0.796649,0.714306,-0.015018,0.737392,0.784233,-0.066217,0.833982,0.741374,-0.025225,0.763904,0.839646,-0.048517,0.866988,0.780059,-0.037319,0.78802,0.854096,-0.059153,0,0,1
619,'2026/05/14 11:51:11:678',3,0.764764,0.940148,-0.000001,0.746463,0.665973,-0.050162,0.753076,0.702224,-0.009437,0.738711,0.488815,-0.059291,0.797045,0.715977,-0.015721,0.736313,0.784134,-0.069125,0.834412,0.742244,-0.025875,0.76289,0.839531,-0.050998,0.867269,0.779859,-0.03805,0.788698,0.854408,-0.061519,0,0,1
620,'2026/05/14 11:51:11:710',3,0.762769,0.938426,-0.000001,0.747743,0.67409,-0.051115,0.752329,0.701935,-0.010509,0.738253,0.490066,-0.060554,0.796363,0.715087,-0.016948,0.735819,0.783616,-0.069939,0.833979,0.741254,-0.027081,0.762155,0.840413,-0.052171,0.867018,0.7787,-0.039136,0.786691,0.856843,-0.062752,0,0,1
621,'2026/05/14 11:51:11:742',3,0.762172,0.937541,-0.000001,0.748645,0.668991,-0.047855,0.75188,0.701712,-0.011377,0.738156,0.490644,-0.061556,0.795482,0.71524,-0.017921,0.737144,0.787577,-0.069225,0.83268,0.742204,-0.027962,0.762859,0.842624,-0.050203,0.865133,0.780928,-0.039895,0.786421,0.856873,-0.060144,0,0,1
622,'2026/05/14 11:51:11:776',3,0.761977,0.938424,0,0.74898,0.675496,-0.051376,0.750876,0.702984,-0.012042,0.737313,0.49015,-0.063245,0.794525,0.715983,-0.018573,0.735701,0.785246,-0.070812,0.831695,0.742898,-0.02862,0.762188,0.839755,-0.051449,0.864255,0.78175,-0.040606,0.782619,0.856109,-0.062686,0,0,1
623,'2026/05/14 11:51:11:806',3,0.761831,0.938195,0,0.749771,0.677973,-0.051501,0.751053,0.702768,-0.012316,0.737167,0.489929,-0.064338,0.794657,0.715689,-0.018769,0.735266,0.785318,-0.072046,0.831637,0.742271,-0.028801,0.761658,0.840391,-0.052631,0.863799,0.780627,-0.040817,0.783729,0.857002,-0.063629,0,0,1
624,'2026/05/14 11:51:11:855',3,0.760601,0.937371,-0.000001,0.747471,0.663456,-0.047729,0.750038,0.701733,-0.012083,0.737328,0.490232,-0.062802,0.794173,0.71503,-0.018179,0.734801,0.786236,-0.069582,0.831444,0.742586,-0.02791,0.761412,0.840984,-0.050084,0.8637,0.781797,-0.039639,0.785672,0.856528,-0.06172,0,0,1
625,'2026/05/14 11:51:11:887',3,0.761212,0.93664,0,0.74666,0.677432,-0.050238,0.750052,0.701719,-0.01349,0.736878,0.489773,-0.064722,0.794419,0.713843,-0.019576,0.735847,0.786316,-0.0713,0.831744,0.740804,-0.02919,0.762809,0.842839,-0.052456,0.863815,0.779692,-0.040767,0.785648,0.857064,-0.061627,0,0,1
626,'2026/05/14 11:51:11:927',3,0.760913,0.938309,-0.000001,0.745487,0.654147,-0.047739,0.749617,0.70093,-0.011525,0.736453,0.487969,-0.061123,0.793669,0.71492,-0.017234,0.73399,0.78585,-0.06913,0.831092,0.741667,-0.026706,0.760386,0.840322,-0.049986,0.864018,0.779894,-0.038225,0.784787,0.85562,-0.061454,0,0,1
627,'2026/05/14 11:51:11:959',3,0.761246,0.939013,-0.000001,0.746412,0.659564,-0.0483,0.750925,0.701486,-0.011064,0.73701,0.489128,-0.060675,0.794837,0.715167,-0.017072,0.734786,0.784176,-0.069087,0.832145,0.742085,-0.026831,0.761611,0.840287,-0.050897,0.864773,0.78055,-0.038582,0.78584,0.856443,-0.061758,0,0,1
628,'2026/05/14 11:51:11:988',3,0.762241,0.938079,0,0.747638,0.67307,-0.051415,0.751431,0.703019,-0.013192,0.737952,0.48892,-0.065003,0.795518,0.715459,-0.019366,0.736642,0.786615,-0.071461,0.833041,0.742206,-0.029115,0.763866,0.842248,-0.051856,0.865728,0.780961,-0.04084,0.78633,0.857271,-0.061954,0,0,1
629,'2026/05/14 11:51:12:020',3,0.761339,0.939508,-0.000001,0.744906,0.650507,-0.044793,0.751688,0.700368,-0.009534,0.738621,0.487687,-0.058096,0.795977,0.714374,-0.015581,0.734936,0.785357,-0.067515,0.833536,0.741196,-0.025441,0.761778,0.840712,-0.049922,0.866462,0.779641,-0.03728,0.786214,0.85724,-0.061203,0,0,1
630,'2026/05/14 11:51:12:050',3,0.763192,0.939606,-0.000001,0.747178,0.661078,-0.050366,0.751624,0.702204,-0.01285,0.738372,0.486936,-0.064288,0.795837,0.715292,-0.018849,0.73638,0.786894,-0.070802,0.833508,0.742177,-0.028538,0.763282,0.840665,-0.050755,0.86689,0.781055,-0.040342,0.784334,0.856147,-0.063053,0,0,1
631,'2026/05/14 11:51:12:084',3,0.764269,0.941387,-0.000001,0.749118,0.665936,-0.051714,0.752489,0.701452,-0.012704,0.738522,0.487025,-0.065446,0.797302,0.713927,-0.018639,0.736296,0.784924,-0.071754,0.83497,0.740818,-0.028444,0.762922,0.840949,-0.052222,0.867875,0.77996,-0.040442,0.784994,0.857062,-0.0645,0,0,1
632,'2026/05/14 11:51:12:114',3,0.762709,0.93993,-0.000001,0.74671,0.652239,-0.046983,0.751952,0.699229,-0.011748,0.738523,0.484971,-0.061933,0.797232,0.713202,-0.017634,0.735458,0.784618,-0.069714,0.835161,0.740852,-0.02739,0.762478,0.840726,-0.051759,0.868024,0.780307,-0.039225,0.78636,0.859279,-0.064222,0,0,1
633,'2026/05/14 11:51:12:145',3,0.762315,0.940758,-0.000001,0.748599,0.661524,-0.048928,0.751367,0.699714,-0.012685,0.738126,0.484156,-0.063993,0.796813,0.712867,-0.018439,0.735208,0.785703,-0.070098,0.834882,0.740452,-0.02797,0.761987,0.842262,-0.050819,0.867788,0.78,-0.039642,0.785205,0.858388,-0.062666,0,0,1
634,'2026/05/14 11:51:12:176',3,0.761455,0.939014,-0.000001,0.744677,0.650508,-0.047172,0.750199,0.699071,-0.012362,0.737404,0.481961,-0.063351,0.794896,0.713131,-0.018039,0.734675,0.786474,-0.070133,0.832738,0.740451,-0.027504,0.761203,0.841203,-0.050083,0.865805,0.779458,-0.039102,0.787616,0.856936,-0.061809,0,0,1
635,'2026/05/14 11:51:12:209',3,0.761748,0.941663,-0.000001,0.740716,0.656295,-0.051405,0.749212,0.698725,-0.011872,0.736049,0.481393,-0.065044,0.794583,0.712449,-0.017704,0.732585,0.787272,-0.072794,0.832725,0.738993,-0.027518,0.759962,0.84094,-0.052562,0.866028,0.777358,-0.039537,0.786257,0.857416,-0.064884,0,0,1
636,'2026/05/14 11:51:12:259',3,0.760672,0.940657,0,0.740007,0.662811,-0.050198,0.747773,0.700209,-0.013808,0.735946,0.479904,-0.066715,0.793206,0.713792,-0.019976,0.733483,0.788547,-0.072869,0.831154,0.740913,-0.029734,0.759541,0.842441,-0.051716,0.864067,0.78016,-0.041578,0.783023,0.859504,-0.063276,0,0,1
637,'2026/05/14 11:51:12:289',3,0.760768,0.940394,-0.000001,0.740544,0.653319,-0.047585,0.748494,0.701159,-0.01339,0.73405,0.481465,-0.065697,0.793395,0.714671,-0.019368,0.73273,0.789122,-0.071109,0.830902,0.742258,-0.02901,0.759517,0.843166,-0.050031,0.863402,0.781787,-0.040767,0.78352,0.85939,-0.061775,0,0,1
638,'2026/05/14 11:51:12:318',3,0.760159,0.940077,0,0.736592,0.645748,-0.044856,0.748312,0.698598,-0.012128,0.734698,0.480345,-0.063935,0.793257,0.712319,-0.017931,0.73191,0.790188,-0.069395,0.830464,0.740387,-0.027483,0.75871,0.843742,-0.04859,0.86282,0.781163,-0.039155,0.781765,0.861388,-0.06125,0,0,1
639,'2026/05/14 11:51:12:351',3,0.758533,0.939784,-0.000001,0.736832,0.642748,-0.043537,0.749536,0.698045,-0.012002,0.735019,0.480224,-0.062826,0.794177,0.712251,-0.0179,0.732234,0.790906,-0.06825,0.831095,0.74104,-0.027519,0.75927,0.844275,-0.047654,0.863186,0.782391,-0.039238,0.782857,0.86143,-0.060617,0,0,1
640,'2026/05/14 11:51:12:383',3,0.760242,0.93999,0,0.746912,0.673889,-0.05043,0.747783,0.700823,-0.015166,0.734208,0.480837,-0.066964,0.793151,0.713118,-0.020986,0.735208,0.790587,-0.072349,0.831235,0.740664,-0.03024,0.763011,0.84626,-0.052209,0.863846,0.780623,-0.041527,0.78381,0.861644,-0.062457,0,0,1
641,'2026/05/14 11:51:12:416',3,0.759199,0.94123,-0.000001,0.743794,0.65216,-0.046496,0.748613,0.697259,-0.012713,0.734623,0.479504,-0.064413,0.794263,0.710791,-0.018283,0.730702,0.78901,-0.070689,0.832312,0.738593,-0.027699,0.757878,0.843719,-0.050357,0.865051,0.778303,-0.039281,0.785027,0.858506,-0.06177,0,0,1
642,'2026/05/14 11:51:12:452',3,0.760511,0.941548,0,0.744638,0.659025,-0.048772,0.747886,0.70046,-0.014067,0.736257,0.480939,-0.067291,0.793207,0.713705,-0.019736,0.733102,0.788506,-0.072661,0.831064,0.741538,-0.029193,0.759765,0.844301,-0.051706,0.863738,0.781316,-0.04083,0.784346,0.858576,-0.063243,0,0,1
643,'2026/05/14 11:51:12:491',3,0.761261,0.939308,0,0.744562,0.659014,-0.04993,0.748866,0.700979,-0.015362,0.736877,0.482653,-0.068191,0.793647,0.71351,-0.020815,0.735162,0.789877,-0.073207,0.831247,0.740694,-0.029955,0.761945,0.846141,-0.052057,0.863863,0.780272,-0.041285,0.785148,0.859488,-0.063297,0,0,1
644,'2026/05/14 11:51:12:524',3,0.759879,0.939234,-0.000001,0.740361,0.652954,-0.047476,0.749575,0.700975,-0.013872,0.736894,0.483585,-0.065933,0.794085,0.714295,-0.019647,0.735265,0.790561,-0.072216,0.831403,0.74163,-0.029149,0.761373,0.846502,-0.051925,0.863884,0.781084,-0.040751,0.78378,0.859888,-0.063048,0,0,1
645,'2026/05/14 11:51:12:555',3,0.758301,0.93919,0,0.738106,0.647557,-0.044834,0.747579,0.697998,-0.011957,0.738273,0.480446,-0.062455,0.792687,0.711945,-0.017636,0.733109,0.790499,-0.068558,0.830062,0.739923,-0.027014,0.758371,0.845026,-0.047837,0.862037,0.780112,-0.038555,0.783845,0.863991,-0.060473,0,0,1
646,'2026/05/14 11:51:12:588',3,0.757776,0.938705,0,0.738525,0.647115,-0.044903,0.748472,0.697318,-0.011881,0.737064,0.480567,-0.062101,0.793235,0.711108,-0.017343,0.732143,0.790647,-0.067928,0.830314,0.739179,-0.026534,0.75826,0.843824,-0.047758,0.862363,0.779817,-0.03789,0.781378,0.862403,-0.060424,0,0,1
647,'2026/05/14 11:51:12:615',3,0.759508,0.941407,0,0.744037,0.664059,-0.0487,0.747831,0.699795,-0.012422,0.736488,0.482061,-0.063621,0.792702,0.712868,-0.018249,0.732825,0.791453,-0.070472,0.830203,0.740127,-0.027726,0.758505,0.84647,-0.049788,0.862615,0.779875,-0.039344,0.782689,0.862908,-0.061193,0,0,1
648,'2026/05/14 11:51:12:655',3,0.759259,0.940487,0,0.743207,0.662958,-0.049898,0.747072,0.700653,-0.014907,0.735174,0.480884,-0.067833,0.792622,0.713526,-0.02042,0.732288,0.790239,-0.07289,0.830245,0.740861,-0.029563,0.758882,0.845977,-0.052238,0.862343,0.780574,-0.040836,0.780785,0.863113,-0.064059,0,0,1
649,'2026/05/14 11:51:12:687',3,0.759514,0.938296,0,0.743231,0.680786,-0.053731,0.746661,0.699921,-0.017186,0.733465,0.480123,-0.070159,0.792363,0.711986,-0.022491,0.734162,0.791529,-0.075582,0.830117,0.739557,-0.031285,0.760759,0.845967,-0.05456,0.862145,0.779788,-0.042224,0.780823,0.865678,-0.06604,0,0,1
650,'2026/05/14 11:51:12:717',3,0.760148,0.938421,0,0.738904,0.656629,-0.048625,0.748028,0.701331,-0.016296,0.733606,0.48013,-0.068557,0.793304,0.713477,-0.02149,0.732805,0.791052,-0.073004,0.830835,0.740183,-0.030447,0.760183,0.845263,-0.052572,0.863437,0.779035,-0.041639,0.78163,0.862163,-0.064988,0,0,1
651,'2026/05/14 11:51:12:749',3,0.758702,0.93848,0,0.737006,0.65968,-0.046671,0.747429,0.699465,-0.014375,0.733357,0.480838,-0.065356,0.792503,0.711814,-0.019843,0.733639,0.791203,-0.071249,0.829949,0.739342,-0.028996,0.760404,0.845022,-0.051174,0.862259,0.779415,-0.040332,0.781815,0.862813,-0.063302,0,0,1
652,'2026/05/14 11:51:12:783',3,0.758198,0.93941,-0.000001,0.738945,0.66027,-0.047993,0.74834,0.701016,-0.015063,0.733444,0.483941,-0.066164,0.793031,0.713754,-0.02064,0.734486,0.79226,-0.0717,0.830544,0.74113,-0.029742,0.761515,0.846336,-0.052001,0.863075,0.781029,-0.040926,0.781343,0.862913,-0.062664,0,0,1
653,'2026/05/14 11:51:12:822',3,0.757785,0.939255,-0.000001,0.740686,0.660532,-0.047801,0.747791,0.700533,-0.014202,0.733744,0.482863,-0.06584,0.792576,0.712981,-0.019784,0.733264,0.791225,-0.071411,0.830117,0.740411,-0.029002,0.76058,0.846313,-0.051356,0.862534,0.780322,-0.040346,0.781687,0.861837,-0.062293,0,0,1
654,'2026/05/14 11:51:12:853',3,0.758809,0.940366,0,0.743585,0.665491,-0.050727,0.74675,0.701389,-0.015186,0.734588,0.481255,-0.068052,0.791784,0.714008,-0.020817,0.732772,0.790969,-0.073338,0.829503,0.741596,-0.030073,0.76051,0.846757,-0.052454,0.861943,0.781509,-0.041465,0.781931,0.861834,-0.063312,0,0,1
655,'2026/05/14 11:51:12:884',3,0.759783,0.940347,0,0.739284,0.662747,-0.048891,0.748413,0.699656,-0.013896,0.734931,0.480571,-0.06532,0.793039,0.712802,-0.019742,0.732783,0.792301,-0.070971,0.829988,0.740681,-0.029139,0.759136,0.847741,-0.04971,0.861924,0.781269,-0.040656,0.780568,0.864549,-0.062032,0,0,1
656,'2026/05/14 11:51:12:915',3,0.758852,0.940976,0,0.741582,0.6576,-0.0478,0.746311,0.701163,-0.013301,0.734513,0.480672,-0.065361,0.791463,0.714523,-0.018985,0.732336,0.791959,-0.070643,0.829115,0.741768,-0.028289,0.757749,0.845313,-0.049242,0.861692,0.78134,-0.039756,0.780846,0.863141,-0.06205,0,0,1
657,'2026/05/14 11:51:12:946',3,0.759406,0.941019,0,0.736459,0.644789,-0.044545,0.747455,0.699466,-0.012909,0.736462,0.481018,-0.063516,0.792626,0.712811,-0.018222,0.732507,0.791835,-0.069058,0.829906,0.740281,-0.02729,0.758729,0.845003,-0.048417,0.862184,0.780317,-0.038611,0.782031,0.863233,-0.061213,0,0,1
658,'2026/05/14 11:51:12:977',3,0.760591,0.940817,0,0.73984,0.669724,-0.053658,0.746507,0.699216,-0.0148,0.735256,0.48074,-0.067518,0.792765,0.713456,-0.020472,0.734144,0.791125,-0.073865,0.831069,0.740897,-0.029799,0.757487,0.844736,-0.051663,0.86411,0.77991,-0.041388,0.782804,0.859696,-0.062929,0,0,1
659,'2026/05/14 11:51:13:008',3,0.760116,0.940143,0,0.744237,0.67644,-0.052309,0.747177,0.699688,-0.014552,0.735829,0.480258,-0.067637,0.792839,0.712626,-0.020689,0.733912,0.791043,-0.073281,0.830907,0.739918,-0.030314,0.759262,0.84382,-0.051231,0.863475,0.77933,-0.042091,0.78477,0.8608,-0.062343,0,0,1
660,'2026/05/14 11:51:13:056',3,0.760517,0.943214,-0.000001,0.741647,0.656231,-0.04936,0.747034,0.700257,-0.013936,0.73701,0.478598,-0.064843,0.792663,0.714793,-0.019708,0.733697,0.790731,-0.071466,0.830976,0.742077,-0.029058,0.760283,0.843381,-0.05118,0.864276,0.781209,-0.040502,0.780458,0.862182,-0.064232,0,0,1
661,'2026/05/14 11:51:13:087',3,0.761472,0.941274,0,0.746778,0.678033,-0.056285,0.748153,0.701856,-0.015804,0.73807,0.481492,-0.070502,0.793276,0.714269,-0.021789,0.734875,0.789417,-0.076065,0.831562,0.741283,-0.031411,0.76152,0.846901,-0.054721,0.864781,0.780472,-0.043198,0.784654,0.860274,-0.06483,0,0,1
662,'2026/05/14 11:51:13:118',3,0.760823,0.94249,0,0.748173,0.667025,-0.051856,0.749133,0.701736,-0.014519,0.738123,0.482151,-0.06769,0.79386,0.714938,-0.02064,0.734571,0.790678,-0.073542,0.831591,0.742725,-0.030381,0.760492,0.846879,-0.052146,0.864548,0.782834,-0.042279,0.783547,0.860569,-0.063607,0,0,1
663,'2026/05/14 11:51:13:151',3,0.760506,0.942261,-0.000001,0.740974,0.652531,-0.049781,0.747828,0.698895,-0.012599,0.737235,0.47945,-0.064683,0.793678,0.712878,-0.018377,0.731682,0.789771,-0.07193,0.831999,0.740088,-0.028032,0.758155,0.843352,-0.051445,0.865192,0.779333,-0.039867,0.78461,0.8593,-0.063656,0,0,1
664,'2026/05/14 11:51:13:183',3,0.761464,0.94027,0,0.748179,0.671584,-0.051824,0.74896,0.700332,-0.014831,0.737743,0.483142,-0.06824,0.794126,0.713133,-0.020786,0.734629,0.789028,-0.073382,0.831817,0.740769,-0.030335,0.761175,0.844646,-0.052649,0.864136,0.780565,-0.042036,0.783796,0.860739,-0.063938,0,0,1
665,'2026/05/14 11:51:13:214',3,0.761594,0.941632,0,0.741021,0.661822,-0.052328,0.748457,0.699431,-0.014992,0.736383,0.479865,-0.068484,0.794198,0.7125,-0.020507,0.733176,0.789859,-0.073624,0.832313,0.739404,-0.029802,0.760615,0.84368,-0.052478,0.865524,0.778712,-0.041335,0.783475,0.859675,-0.065257,0,0,1
666,'2026/05/14 11:51:13:246',3,0.761437,0.940266,0,0.748089,0.671975,-0.050883,0.748943,0.700679,-0.014513,0.7374,0.483139,-0.067667,0.794013,0.713277,-0.020448,0.734732,0.790033,-0.07294,0.831775,0.740762,-0.030002,0.761556,0.845841,-0.052033,0.864229,0.780402,-0.041689,0.785554,0.860302,-0.062933,0,0,1
667,'2026/05/14 11:51:13:279',3,0.761202,0.941251,0,0.746794,0.671408,-0.052966,0.748133,0.701227,-0.014655,0.737675,0.482457,-0.067787,0.793509,0.713931,-0.020534,0.734336,0.789381,-0.073207,0.831757,0.741051,-0.030038,0.760286,0.845149,-0.052554,0.864841,0.780083,-0.041676,0.784042,0.86159,-0.06436,0,0,1
668,'2026/05/14 11:51:13:310',3,0.761149,0.940849,-0.000001,0.745229,0.663112,-0.052417,0.748781,0.699882,-0.013833,0.736836,0.481852,-0.066713,0.794407,0.712315,-0.019199,0.732838,0.78756,-0.072729,0.83284,0.739057,-0.028483,0.759645,0.844478,-0.052631,0.866189,0.777682,-0.04004,0.784594,0.85913,-0.064148,0,0,1
669,'2026/05/14 11:51:13:341',3,0.7609,0.942531,-0.000001,0.741999,0.657988,-0.051649,0.747401,0.700922,-0.014794,0.737,0.480354,-0.067268,0.792811,0.715005,-0.020439,0.734458,0.791202,-0.073069,0.831096,0.742317,-0.029688,0.760377,0.84448,-0.051794,0.864712,0.781592,-0.041115,0.780406,0.861016,-0.064552,0,0,1
670,'2026/05/14 11:51:13:382',3,0.760542,0.940479,-0.000001,0.747111,0.658184,-0.050224,0.748329,0.701404,-0.014472,0.737661,0.482451,-0.06652,0.793102,0.714957,-0.020225,0.735088,0.79123,-0.072478,0.831118,0.742289,-0.029608,0.761651,0.847103,-0.051575,0.864577,0.781668,-0.041124,0.782794,0.860832,-0.063271,0,0,1
671,'2026/05/14 11:51:13:410',3,0.76104,0.941617,0,0.742394,0.662584,-0.050248,0.748441,0.701287,-0.014643,0.736118,0.480927,-0.06736,0.793702,0.714098,-0.020522,0.734087,0.790792,-0.073026,0.831454,0.740985,-0.029994,0.759912,0.8464,-0.051812,0.8639,0.780033,-0.041613,0.784747,0.862778,-0.063487,0,0,1
672,'2026/05/14 11:51:13:456',3,0.761322,0.940484,0,0.744084,0.660027,-0.050145,0.748346,0.701586,-0.014153,0.736252,0.481818,-0.067249,0.793359,0.714419,-0.019839,0.734264,0.790413,-0.072141,0.831266,0.741343,-0.02919,0.760655,0.845726,-0.050335,0.864222,0.780438,-0.040736,0.783708,0.860974,-0.062029,0,0,1
673,'2026/05/14 11:51:13:490',3,0.76156,0.940092,0,0.747479,0.669374,-0.050161,0.748697,0.701173,-0.01474,0.736731,0.48277,-0.067136,0.793632,0.71355,-0.020625,0.735356,0.789759,-0.073265,0.831277,0.740684,-0.030064,0.76191,0.845877,-0.053195,0.863686,0.780198,-0.041626,0.782832,0.862386,-0.064303,0,0,1
674,'2026/05/14 11:51:13:521',3,0.760851,0.939495,0,0.744254,0.650902,-0.047609,0.74829,0.7011,-0.014102,0.738101,0.481749,-0.065623,0.793015,0.714523,-0.019583,0.734618,0.790863,-0.071443,0.830529,0.742025,-0.028822,0.761154,0.846634,-0.050815,0.863285,0.781719,-0.040223,0.784518,0.860889,-0.061876,0,0,1
675,'2026/05/14 11:51:13:551',3,0.76103,0.94101,0,0.737563,0.643461,-0.04461,0.747388,0.699579,-0.013271,0.737148,0.48167,-0.063379,0.792307,0.713106,-0.018426,0.734348,0.793591,-0.068844,0.829726,0.739902,-0.027227,0.759971,0.844401,-0.047403,0.862409,0.779013,-0.038327,0.782622,0.863895,-0.061084,0,0,1
676,'2026/05/14 11:51:13:585',3,0.760707,0.940439,0,0.740805,0.650885,-0.046678,0.747672,0.699848,-0.013664,0.737137,0.480934,-0.064659,0.792751,0.713385,-0.019143,0.734553,0.79169,-0.0701,0.830205,0.741138,-0.02826,0.760357,0.845572,-0.049213,0.862476,0.781317,-0.039561,0.782166,0.86351,-0.061987,0,0,1
677,'2026/05/14 11:51:13:615',3,0.76137,0.941282,0,0.738918,0.656349,-0.048434,0.747638,0.701366,-0.014038,0.736297,0.48226,-0.066182,0.792572,0.714659,-0.020023,0.734772,0.793244,-0.0721,0.83013,0.741742,-0.029632,0.761378,0.846041,-0.050836,0.863258,0.78153,-0.041415,0.780718,0.861184,-0.0634,0,0,1
678,'2026/05/14 11:51:13:653',3,0.759143,0.9392,0,0.739241,0.650664,-0.04435,0.749686,0.697996,-0.012344,0.736515,0.482506,-0.062906,0.794384,0.711305,-0.018007,0.732748,0.792148,-0.068607,0.831051,0.73966,-0.027382,0.75998,0.846107,-0.048198,0.862648,0.780896,-0.038906,0.782268,0.862827,-0.060974,0,0,1
679,'2026/05/14 11:51:13:679',3,0.761154,0.940513,0,0.738335,0.653333,-0.045229,0.747378,0.699545,-0.013475,0.736893,0.481744,-0.062053,0.79258,0.712828,-0.018621,0.735306,0.792727,-0.067825,0.829893,0.739576,-0.02725,0.760233,0.844917,-0.047012,0.862326,0.778816,-0.038094,0.780967,0.864701,-0.060852,0,0,1
680,'2026/05/14 11:51:13:709',3,0.759414,0.939254,0,0.738177,0.645242,-0.044372,0.748496,0.700198,-0.012624,0.736568,0.482385,-0.063552,0.793061,0.714252,-0.018476,0.733258,0.791394,-0.069716,0.830092,0.742463,-0.028037,0.759938,0.845433,-0.049215,0.862348,0.783022,-0.039673,0.784146,0.862224,-0.061684,0,0,1
681,'2026/05/14 11:51:13:743',3,0.759647,0.93909,-0.000001,0.743966,0.652224,-0.044907,0.748818,0.701703,-0.01359,0.736769,0.483558,-0.063594,0.792972,0.715055,-0.01919,0.734969,0.791684,-0.07012,0.830024,0.742491,-0.0284,0.76221,0.846078,-0.050842,0.862483,0.782358,-0.039657,0.7823,0.86276,-0.062887,0,0,1
682,'2026/05/14 11:51:13:776',3,0.759911,0.938586,0,0.736295,0.645948,-0.045469,0.749961,0.699412,-0.013903,0.736336,0.482351,-0.064287,0.794421,0.712672,-0.019344,0.733742,0.793607,-0.069405,0.831048,0.740579,-0.028442,0.760686,0.847717,-0.048779,0.863003,0.781273,-0.039705,0.780791,0.864923,-0.062039,0,0,1
683,'2026/05/14 11:51:13:826',3,0.759433,0.939511,-0.000001,0.745085,0.659707,-0.048052,0.747698,0.701369,-0.014678,0.73671,0.482559,-0.065938,0.792789,0.714645,-0.020341,0.734348,0.790737,-0.071506,0.830401,0.742375,-0.029521,0.761227,0.84515,-0.050825,0.862735,0.782191,-0.040811,0.783718,0.860786,-0.062183,0,0,1
684,'2026/05/14 11:51:13:864',3,0.758814,0.939421,0,0.744848,0.663209,-0.048973,0.748497,0.700943,-0.013635,0.736034,0.482978,-0.066086,0.792919,0.71393,-0.019692,0.734938,0.791257,-0.072776,0.830285,0.741619,-0.029394,0.76203,0.847263,-0.052037,0.862794,0.781778,-0.041211,0.783218,0.861033,-0.062227,0,0,1
685,'2026/05/14 11:51:13:902',3,0.758484,0.939439,0,0.740804,0.651523,-0.043542,0.748905,0.700141,-0.012307,0.735274,0.481963,-0.062465,0.793413,0.713451,-0.017873,0.732984,0.790794,-0.068304,0.830331,0.741623,-0.027135,0.759793,0.845212,-0.048029,0.862328,0.782263,-0.038533,0.78265,0.862147,-0.060322,0,0,1
686,'2026/05/14 11:51:13:927',3,0.758896,0.936276,0,0.739728,0.658687,-0.04788,0.748515,0.700756,-0.015552,0.734726,0.483035,-0.066911,0.793559,0.712684,-0.020726,0.734512,0.790583,-0.071203,0.830958,0.74,-0.029539,0.761677,0.84511,-0.050497,0.863132,0.77984,-0.040558,0.784434,0.860436,-0.06171,0,0,1
687,'2026/05/14 11:51:13:957',3,0.762105,0.941915,0,0.740899,0.659749,-0.047941,0.747727,0.700785,-0.013743,0.735703,0.480702,-0.064167,0.792418,0.712985,-0.018896,0.734494,0.792448,-0.069777,0.829512,0.739234,-0.027643,0.75939,0.845422,-0.047997,0.861652,0.777955,-0.038728,0.781628,0.863993,-0.061627,0,0,1
688,'2026/05/14 11:51:13:992',3,0.759929,0.940551,0,0.737324,0.649004,-0.046611,0.748155,0.699544,-0.013528,0.735839,0.48143,-0.064373,0.79314,0.713032,-0.019157,0.732421,0.792108,-0.069864,0.830307,0.741098,-0.028476,0.758892,0.847147,-0.048991,0.862527,0.781713,-0.039964,0.781186,0.863854,-0.06167,0,0,1
689,'2026/05/14 11:51:14:020',3,0.75966,0.940239,0,0.746638,0.669584,-0.04922,0.747897,0.70107,-0.01354,0.735687,0.482977,-0.065741,0.792619,0.713988,-0.019662,0.734252,0.792149,-0.072274,0.830076,0.741709,-0.029336,0.761154,0.847249,-0.051555,0.8624,0.781895,-0.041065,0.782638,0.862248,-0.062116,0,0,1
690,'2026/05/14 11:51:14:051',3,0.75813,0.938414,0,0.742479,0.656545,-0.045522,0.748507,0.699441,-0.013493,0.735267,0.481905,-0.064315,0.793364,0.712635,-0.018922,0.733868,0.790068,-0.069897,0.830471,0.740579,-0.028006,0.760639,0.845836,-0.049889,0.862377,0.780948,-0.039206,0.781569,0.862535,-0.061681,0,0,1
691,'2026/05/14 11:51:14:083',3,0.759112,0.940074,-0.000001,0.743536,0.65985,-0.046816,0.748226,0.700637,-0.013746,0.735124,0.48259,-0.064231,0.79293,0.713611,-0.019421,0.733249,0.791526,-0.070808,0.830099,0.741132,-0.028662,0.760589,0.845562,-0.051038,0.862067,0.781182,-0.039972,0.781217,0.863184,-0.062634,0,0,1
692,'2026/05/14 11:51:14:121',3,0.758182,0.9409,0,0.73883,0.657648,-0.046383,0.746623,0.700644,-0.013657,0.734276,0.481076,-0.064166,0.791619,0.714166,-0.019356,0.73289,0.792776,-0.070332,0.828957,0.741293,-0.028573,0.758823,0.844979,-0.049476,0.861082,0.780571,-0.039927,0.780634,0.863844,-0.061659,0,0,1
693,'2026/05/14 11:51:14:150',3,0.75924,0.937906,0,0.741718,0.66235,-0.045675,0.748276,0.699715,-0.01384,0.734388,0.482089,-0.064512,0.793018,0.71206,-0.019198,0.735229,0.791638,-0.070558,0.830039,0.739461,-0.028181,0.761146,0.845418,-0.050327,0.861896,0.779361,-0.039343,0.781867,0.863127,-0.062329,0,0,1
694,'2026/05/14 11:51:14:177',3,0.758966,0.939321,0,0.736804,0.640961,-0.042042,0.748377,0.698797,-0.0123,0.735554,0.481562,-0.060578,0.792855,0.712661,-0.017439,0.733592,0.794068,-0.06632,0.829545,0.740255,-0.0262,0.758419,0.846123,-0.045968,0.861444,0.780244,-0.037154,0.779385,0.865367,-0.059835,0,0,1
695,'2026/05/14 11:51:14:226',3,0.759062,0.940397,0,0.739744,0.655934,-0.048036,0.74643,0.700743,-0.01319,0.735617,0.482203,-0.065663,0.791592,0.713743,-0.018946,0.732676,0.791054,-0.07112,0.829211,0.740907,-0.028428,0.758412,0.844171,-0.049736,0.861633,0.780336,-0.040112,0.783339,0.861642,-0.061322,0,0,1
696,'2026/05/14 11:51:14:256',3,0.759856,0.939049,0,0.743051,0.669894,-0.049272,0.747767,0.700283,-0.014499,0.73515,0.481629,-0.0654,0.792665,0.712742,-0.019902,0.735925,0.79379,-0.071626,0.829866,0.739794,-0.028843,0.761364,0.847339,-0.050728,0.861892,0.779473,-0.03994,0.781108,0.86565,-0.062903,0,0,1
697,'2026/05/14 11:51:14:286',3,0.760384,0.938302,0,0.737856,0.659246,-0.04881,0.749109,0.700721,-0.014461,0.735401,0.481966,-0.065968,0.793622,0.713521,-0.020132,0.733423,0.792016,-0.071638,0.830264,0.741125,-0.029392,0.759894,0.846803,-0.05057,0.861899,0.781399,-0.040794,0.781321,0.865309,-0.06347,0,0,1
698,'2026/05/14 11:51:14:318',3,0.758436,0.941412,0,0.736598,0.648002,-0.044508,0.746998,0.70053,-0.012394,0.735698,0.480483,-0.062987,0.791672,0.713919,-0.018066,0.732043,0.793333,-0.068978,0.828912,0.740983,-0.027374,0.757817,0.845509,-0.047656,0.861359,0.78045,-0.038883,0.781563,0.86284,-0.060521,0,0,1
699,'2026/05/14 11:51:14:354',3,0.75847,0.941018,0,0.743663,0.67532,-0.051858,0.747277,0.701842,-0.014937,0.735499,0.482583,-0.068028,0.791902,0.713924,-0.021095,0.732814,0.7924,-0.074094,0.829528,0.741166,-0.030739,0.760934,0.848305,-0.053465,0.861938,0.781194,-0.042441,0.781305,0.863035,-0.063662,0,0,1
700,'2026/05/14 11:51:14:382',3,0.758557,0.941304,0,0.740864,0.65346,-0.047231,0.746349,0.700829,-0.013571,0.735033,0.482595,-0.065741,0.791337,0.713653,-0.019124,0.731942,0.792806,-0.070843,0.828867,0.740714,-0.02836,0.757662,0.84652,-0.049183,0.861298,0.780206,-0.039836,0.782339,0.863065,-0.061808,0,0,1
701,'2026/05/14 11:51:14:416',3,0.758845,0.938107,0,0.741044,0.663633,-0.045833,0.748489,0.699432,-0.013816,0.734097,0.482574,-0.064844,0.793441,0.711849,-0.019174,0.73366,0.791896,-0.070217,0.830355,0.739609,-0.028192,0.761164,0.844846,-0.050155,0.861963,0.78,-0.039382,0.780874,0.863244,-0.062861,0,0,1
702,'2026/05/14 11:51:14:446',3,0.759151,0.940386,0,0.739875,0.653305,-0.046234,0.746345,0.700954,-0.012856,0.735951,0.481014,-0.063981,0.791098,0.713876,-0.018345,0.7324,0.792748,-0.069605,0.82843,0.740906,-0.027502,0.758201,0.845771,-0.048333,0.860685,0.78029,-0.038882,0.782364,0.863834,-0.060808,0,0,1
703,'2026/05/14 11:51:14:480',3,0.759625,0.941336,-0.000001,0.741629,0.655801,-0.046563,0.748385,0.700731,-0.014798,0.735465,0.481843,-0.066347,0.793307,0.713529,-0.020235,0.732731,0.79038,-0.070598,0.83055,0.741426,-0.029295,0.76142,0.845139,-0.050498,0.862493,0.781895,-0.04052,0.782382,0.861657,-0.06241,0,0,1
704,'2026/05/14 11:51:14:511',3,0.758882,0.939588,0,0.742801,0.664897,-0.047974,0.747426,0.701049,-0.014641,0.734333,0.483965,-0.065883,0.792199,0.71354,-0.020412,0.735756,0.791442,-0.071772,0.829766,0.74098,-0.029704,0.762838,0.846006,-0.051568,0.862238,0.780859,-0.041117,0.782053,0.861267,-0.062253,0,0,1
705,'2026/05/14 11:51:14:550',3,0.758604,0.939942,-0.000001,0.743078,0.659905,-0.047813,0.747702,0.700919,-0.014403,0.735653,0.482385,-0.065922,0.792387,0.713784,-0.019978,0.734109,0.790794,-0.071172,0.829944,0.741549,-0.02915,0.761773,0.846635,-0.050691,0.862506,0.781642,-0.040454,0.783135,0.860024,-0.060985,0,0,1
706,'2026/05/14 11:51:14:586',3,0.758587,0.94028,0,0.736312,0.645655,-0.044923,0.747897,0.700317,-0.013001,0.736361,0.481577,-0.06424,0.79251,0.713923,-0.01877,0.732195,0.79181,-0.069956,0.829473,0.741943,-0.028285,0.759133,0.846241,-0.049021,0.861506,0.78241,-0.039976,0.784262,0.862649,-0.060867,0,0,1
707,'2026/05/14 11:51:14:622',3,0.758437,0.941368,0,0.74346,0.678903,-0.052451,0.747911,0.701314,-0.015294,0.73583,0.483844,-0.067985,0.79258,0.713357,-0.021257,0.732952,0.792968,-0.074156,0.830169,0.74069,-0.030651,0.761508,0.846745,-0.054048,0.862484,0.780918,-0.042099,0.779784,0.863523,-0.06413,0,0,1
708,'2026/05/14 11:51:14:653',3,0.759404,0.940962,0,0.742807,0.678304,-0.05378,0.747975,0.701247,-0.016686,0.735084,0.4838,-0.070948,0.792894,0.712919,-0.022489,0.734636,0.79235,-0.075554,0.830609,0.74017,-0.031731,0.762019,0.847702,-0.054277,0.862904,0.78026,-0.043144,0.782591,0.860916,-0.063546,0,0,1
709,'2026/05/14 11:51:14:695',3,0.760457,0.936487,0,0.739544,0.666189,-0.049265,0.749065,0.699925,-0.015398,0.734961,0.481933,-0.067283,0.793732,0.712086,-0.020463,0.734851,0.793706,-0.072552,0.830371,0.739598,-0.029153,0.760369,0.846482,-0.050851,0.861822,0.779718,-0.040087,0.7821,0.863883,-0.062757,0,0,1
710,'2026/05/14 11:51:14:726',3,0.758186,0.939952,0,0.737411,0.644703,-0.041962,0.747019,0.700141,-0.011465,0.736185,0.482366,-0.060159,0.791437,0.713851,-0.017046,0.732743,0.79233,-0.067045,0.828539,0.741207,-0.026325,0.758914,0.845935,-0.047521,0.860839,0.780875,-0.037687,0.782663,0.864463,-0.059952,0,0,1
711,'2026/05/14 11:51:14:757',3,0.759402,0.93847,0,0.741376,0.665552,-0.047916,0.748167,0.699505,-0.014259,0.734682,0.482157,-0.065925,0.792877,0.712084,-0.019678,0.733005,0.791829,-0.071316,0.829684,0.740062,-0.028766,0.759219,0.844673,-0.050765,0.861282,0.780741,-0.040032,0.780351,0.863411,-0.063281,0,0,1
712,'2026/05/14 11:51:14:791',3,0.758862,0.939912,0,0.741643,0.655927,-0.046337,0.74696,0.700601,-0.013521,0.735392,0.483625,-0.063926,0.791399,0.713917,-0.019266,0.734343,0.791681,-0.070453,0.828633,0.741609,-0.028668,0.761262,0.846726,-0.050824,0.861117,0.781698,-0.040189,0.781862,0.862914,-0.062126,0,0,1
713,'2026/05/14 11:51:14:820',3,0.759755,0.939887,0,0.738333,0.657411,-0.046451,0.747465,0.699785,-0.013323,0.735393,0.481553,-0.06316,0.791918,0.7125,-0.018516,0.733771,0.792665,-0.069066,0.828698,0.7394,-0.027317,0.759297,0.844985,-0.048275,0.860603,0.778865,-0.038363,0.780277,0.864106,-0.061467,0,0,1
714,'2026/05/14 11:51:14:853',3,0.758609,0.939855,-0.000001,0.742266,0.669437,-0.050179,0.747437,0.701788,-0.015311,0.734344,0.485108,-0.06716,0.791988,0.713821,-0.021035,0.734375,0.791317,-0.072739,0.829611,0.740775,-0.030223,0.762287,0.846539,-0.052851,0.862249,0.780347,-0.041511,0.780069,0.861327,-0.063246,0,0,1
715,'2026/05/14 11:51:14:883',3,0.759437,0.940577,0,0.740338,0.669396,-0.049187,0.747499,0.702403,-0.015188,0.732951,0.484851,-0.067658,0.792031,0.714015,-0.021004,0.734031,0.792759,-0.073229,0.829225,0.740693,-0.030416,0.761519,0.84621,-0.053113,0.861498,0.780227,-0.041966,0.780049,0.862313,-0.064468,0,0,1
716,'2026/05/14 11:51:14:915',3,0.758947,0.938853,0,0.738613,0.660142,-0.046746,0.747303,0.70141,-0.014252,0.733302,0.483266,-0.065967,0.791611,0.71387,-0.020076,0.733664,0.792281,-0.072217,0.828602,0.741077,-0.029569,0.761039,0.846634,-0.051832,0.860808,0.780693,-0.041207,0.782,0.861337,-0.063546,0,0,1
717,'2026/05/14 11:51:14:947',3,0.759427,0.939141,0,0.740995,0.671879,-0.047438,0.746184,0.701241,-0.015092,0.733207,0.482604,-0.065782,0.791326,0.711988,-0.020253,0.733206,0.792606,-0.071027,0.828796,0.738646,-0.029043,0.759771,0.844677,-0.050892,0.861043,0.77809,-0.040073,0.780424,0.862418,-0.062712,0,0,1
718,'2026/05/14 11:51:14:978',3,0.757233,0.940082,-0.000001,0.737787,0.645441,-0.044238,0.746045,0.70105,-0.012304,0.733889,0.482486,-0.063291,0.790501,0.714877,-0.018096,0.73057,0.792249,-0.06953,0.827658,0.742644,-0.027652,0.757457,0.847157,-0.048642,0.860051,0.782411,-0.03934,0.783263,0.861573,-0.059877,0,0,1
719,'2026/05/14 11:51:15:027',3,0.758255,0.938868,-0.000001,0.739629,0.660057,-0.048098,0.746713,0.70145,-0.015723,0.73254,0.484201,-0.067167,0.791462,0.713628,-0.021132,0.733758,0.793069,-0.072235,0.828915,0.740709,-0.030155,0.761153,0.847116,-0.052023,0.861625,0.7803,-0.041365,0.780532,0.861367,-0.063464,0,0,1
720,'2026/05/14 11:51:15:056',3,0.760211,0.939833,0,0.73702,0.664764,-0.050414,0.746003,0.70316,-0.016875,0.732768,0.483275,-0.068041,0.791021,0.714204,-0.021757,0.733226,0.793209,-0.072371,0.8287,0.739986,-0.030255,0.760732,0.846035,-0.05218,0.861527,0.778541,-0.040993,0.780298,0.863338,-0.063773,0,0,1
721,'2026/05/14 11:51:15:088',3,0.758999,0.939036,0,0.739331,0.670701,-0.047715,0.746489,0.700779,-0.015242,0.732191,0.482977,-0.065852,0.791536,0.71193,-0.02068,0.732931,0.792799,-0.071563,0.829017,0.738588,-0.029611,0.760551,0.845437,-0.052289,0.861282,0.778223,-0.040663,0.778538,0.86507,-0.064163,0,0,1
722,'2026/05/14 11:51:15:120',3,0.75827,0.93934,0,0.740751,0.675185,-0.051114,0.746236,0.701325,-0.01561,0.732451,0.485062,-0.067359,0.791314,0.712726,-0.021163,0.733008,0.793487,-0.073107,0.829158,0.739415,-0.03013,0.760664,0.846655,-0.053117,0.861477,0.778795,-0.041188,0.779589,0.863777,-0.063802,0,0,1
723,'2026/05/14 11:51:15:150',3,0.757207,0.940155,0,0.740179,0.675681,-0.050332,0.746197,0.702159,-0.015273,0.732108,0.485432,-0.066931,0.791112,0.713547,-0.020893,0.733096,0.793856,-0.072524,0.828766,0.740535,-0.029946,0.760995,0.846513,-0.052023,0.861076,0.780193,-0.041109,0.780622,0.861971,-0.062475,0,0,1
724,'2026/05/14 11:51:15:183',3,0.758052,0.939577,0,0.738179,0.658632,-0.048461,0.746301,0.701714,-0.015772,0.731512,0.484624,-0.067939,0.791091,0.713663,-0.021103,0.732582,0.792372,-0.072387,0.828539,0.740776,-0.030077,0.760392,0.847048,-0.051781,0.861063,0.780437,-0.041273,0.781068,0.861889,-0.063283,0,0,1
725,'2026/05/14 11:51:15:214',3,0.757823,0.939722,0,0.74034,0.665113,-0.050472,0.745511,0.702851,-0.015894,0.73225,0.485774,-0.068856,0.790231,0.714884,-0.021551,0.732201,0.792265,-0.07385,0.827824,0.74176,-0.030844,0.760069,0.847011,-0.052952,0.860548,0.780982,-0.042303,0.782715,0.861036,-0.063518,0,0,1
726,'2026/05/14 11:51:15:249',3,0.758649,0.941003,0,0.742235,0.690634,-0.057087,0.74515,0.701844,-0.017634,0.731918,0.484365,-0.071909,0.790674,0.712606,-0.023471,0.731553,0.793398,-0.07692,0.828807,0.73898,-0.032755,0.760275,0.848233,-0.055624,0.861423,0.777949,-0.044249,0.782261,0.86163,-0.065136,0,0,1
727,'2026/05/14 11:51:15:279',3,0.758298,0.940337,0,0.739666,0.659014,-0.047569,0.74571,0.701834,-0.014601,0.73129,0.484152,-0.066466,0.790457,0.714093,-0.020195,0.732864,0.793404,-0.071687,0.828081,0.740807,-0.029415,0.759863,0.847581,-0.050729,0.860918,0.779834,-0.040805,0.781345,0.862358,-0.06184,0,0,1
728,'2026/05/14 11:51:15:311',3,0.757705,0.93977,0,0.74217,0.672761,-0.051004,0.745203,0.701971,-0.016702,0.731285,0.484899,-0.068454,0.791053,0.712785,-0.02185,0.731243,0.791831,-0.072443,0.829185,0.739246,-0.030512,0.760051,0.84682,-0.05239,0.861749,0.778383,-0.041367,0.780452,0.862622,-0.063593,0,0,1
729,'2026/05/14 11:51:15:341',3,0.75819,0.941434,0,0.742365,0.679133,-0.053143,0.744732,0.702474,-0.015444,0.731658,0.484092,-0.068987,0.789508,0.713962,-0.021377,0.731242,0.792597,-0.074592,0.827147,0.740696,-0.030867,0.758998,0.847114,-0.053162,0.859641,0.779977,-0.042566,0.781105,0.861699,-0.063448,0,0,1
730,'2026/05/14 11:51:15:374',3,0.758718,0.940607,0,0.740117,0.658224,-0.047514,0.745365,0.702023,-0.01388,0.731385,0.483848,-0.065406,0.789915,0.714234,-0.019403,0.732063,0.793381,-0.070867,0.827243,0.740903,-0.02858,0.758382,0.848021,-0.049801,0.859691,0.779891,-0.039959,0.781061,0.861721,-0.061001,0,0,1
731,'2026/05/14 11:51:15:429',3,0.759869,0.941857,0,0.740161,0.664972,-0.051468,0.745165,0.702012,-0.015238,0.731178,0.484158,-0.068094,0.79003,0.713871,-0.020623,0.730938,0.793628,-0.072837,0.827338,0.740423,-0.029677,0.757358,0.847697,-0.051351,0.859563,0.779663,-0.04098,0.77991,0.863555,-0.063466,0,0,1
732,'2026/05/14 11:51:15:462',3,0.756759,0.941993,-0.000001,0.741329,0.676045,-0.052355,0.7446,0.702585,-0.015651,0.732066,0.483596,-0.067849,0.78991,0.713957,-0.021413,0.7309,0.792377,-0.073386,0.827981,0.740759,-0.030668,0.759183,0.848615,-0.053183,0.86075,0.78013,-0.042029,0.779894,0.863241,-0.063409,0,0,1
733,'2026/05/14 11:51:15:492',3,0.758465,0.93838,0,0.735272,0.663554,-0.050059,0.744576,0.701684,-0.017003,0.730847,0.483126,-0.069314,0.789894,0.712698,-0.021976,0.731003,0.793635,-0.073864,0.827566,0.738894,-0.030645,0.75914,0.847239,-0.052918,0.860142,0.777459,-0.041605,0.781188,0.862119,-0.064304,0,0,1
734,'2026/05/14 11:51:15:522',3,0.757365,0.938905,0,0.735736,0.665038,-0.047974,0.744846,0.702673,-0.015831,0.730622,0.482889,-0.066795,0.789836,0.713595,-0.021189,0.732899,0.79308,-0.071953,0.827409,0.740018,-0.030115,0.761104,0.845948,-0.052035,0.86005,0.779079,-0.04125,0.778963,0.862681,-0.063691,0,0,1
735,'2026/05/14 11:51:15:554',3,0.757907,0.940495,0,0.739685,0.667185,-0.049966,0.745206,0.701679,-0.015086,0.731153,0.484484,-0.068072,0.790261,0.713435,-0.02081,0.732134,0.792316,-0.072866,0.827914,0.740194,-0.030119,0.759079,0.847117,-0.051781,0.860189,0.779386,-0.041632,0.780542,0.861667,-0.062484,0,0,1
736,'2026/05/14 11:51:15:585',3,0.759536,0.94131,0,0.738204,0.666405,-0.049723,0.745114,0.701195,-0.014959,0.731156,0.481267,-0.066789,0.789908,0.712824,-0.020321,0.7338,0.795855,-0.072148,0.827155,0.739362,-0.029262,0.759331,0.848779,-0.050443,0.859346,0.779004,-0.04048,0.779331,0.866464,-0.063372,0,0,1
737,'2026/05/14 11:51:15:617',3,0.757924,0.938644,0,0.734735,0.661374,-0.049123,0.745316,0.702842,-0.017203,0.731016,0.48355,-0.068796,0.790238,0.713934,-0.022099,0.732383,0.794309,-0.072306,0.827987,0.739819,-0.030597,0.760687,0.847359,-0.051506,0.86081,0.778026,-0.041354,0.780991,0.862275,-0.062759,0,0,1
738,'2026/05/14 11:51:15:649',3,0.75781,0.940801,-0.000001,0.739416,0.663949,-0.048378,0.744911,0.701439,-0.015826,0.730647,0.484805,-0.06767,0.790488,0.712518,-0.02102,0.730191,0.792711,-0.072186,0.828368,0.739412,-0.029891,0.759119,0.84727,-0.05155,0.861017,0.778969,-0.041041,0.781659,0.860778,-0.063047,0,0,1
739,'2026/05/14 11:51:15:679',3,0.758335,0.939414,0,0.734988,0.657763,-0.047204,0.744353,0.703152,-0.014918,0.730875,0.482822,-0.065815,0.789095,0.715212,-0.020262,0.732458,0.793237,-0.07136,0.826685,0.741586,-0.02927,0.759411,0.847453,-0.051017,0.859582,0.780265,-0.040433,0.781501,0.863023,-0.062165,0,0,1
740,'2026/05/14 11:51:15:711',3,0.759826,0.941679,0,0.739246,0.676307,-0.050885,0.744798,0.701675,-0.015376,0.731347,0.482322,-0.067463,0.789882,0.712477,-0.020712,0.731951,0.794079,-0.07274,0.827428,0.738863,-0.029687,0.759135,0.848194,-0.052446,0.859701,0.778504,-0.040848,0.778533,0.865571,-0.0639,0,0,1
741,'2026/05/14 11:51:15:744',3,0.757464,0.938328,0,0.73495,0.663828,-0.046074,0.745062,0.700254,-0.014795,0.730658,0.482559,-0.064898,0.790083,0.711252,-0.020031,0.731997,0.793561,-0.070304,0.827512,0.737964,-0.0288,0.760256,0.846172,-0.050509,0.859728,0.777689,-0.039754,0.77846,0.86409,-0.062064,0,0,1
742,'2026/05/14 11:51:15:775',3,0.758206,0.94168,0,0.737901,0.659279,-0.047001,0.745454,0.701147,-0.014211,0.730265,0.484422,-0.066331,0.790403,0.713367,-0.019942,0.731296,0.793567,-0.071386,0.827931,0.74013,-0.029323,0.75812,0.847654,-0.050482,0.860491,0.779306,-0.040899,0.781327,0.862856,-0.062225,0,0,1
743,'2026/05/14 11:51:15:823',3,0.757231,0.94169,0,0.739083,0.662051,-0.049115,0.743716,0.699803,-0.013838,0.731973,0.483389,-0.066106,0.789635,0.711434,-0.018994,0.729175,0.791492,-0.070685,0.827879,0.738356,-0.027948,0.755845,0.846939,-0.049807,0.860742,0.777552,-0.03921,0.780889,0.8622,-0.061776,0,0,1
744,'2026/05/14 11:51:15:857',3,0.757688,0.941706,0,0.741654,0.664854,-0.048265,0.74491,0.702053,-0.013928,0.731895,0.484419,-0.065396,0.789545,0.713797,-0.019593,0.731547,0.792362,-0.070986,0.827186,0.740905,-0.028857,0.7591,0.847229,-0.050204,0.859831,0.780481,-0.040315,0.782065,0.860705,-0.060446,0,0,1
745,'2026/05/14 11:51:15:898',3,0.757627,0.94187,-0.000001,0.738989,0.663431,-0.048524,0.744045,0.701034,-0.014507,0.731496,0.483508,-0.066039,0.789556,0.712881,-0.019869,0.72922,0.791845,-0.07104,0.827686,0.739495,-0.028913,0.757422,0.846349,-0.050747,0.860576,0.778357,-0.040179,0.782201,0.861692,-0.062306,0,0,1
746,'2026/05/14 11:51:15:928',3,0.75922,0.941749,0,0.742671,0.681875,-0.054624,0.744131,0.70164,-0.016547,0.730284,0.482904,-0.071038,0.789636,0.712479,-0.022289,0.731288,0.792286,-0.07575,0.82761,0.738926,-0.031601,0.758382,0.847576,-0.054179,0.860127,0.778104,-0.043169,0.779274,0.864122,-0.065455,0,0,1
747,'2026/05/14 11:51:15:958',3,0.757229,0.93916,0,0.739874,0.664591,-0.049171,0.744463,0.70315,-0.016371,0.730355,0.483954,-0.067382,0.789612,0.714786,-0.021761,0.732347,0.792436,-0.072408,0.82749,0.74147,-0.030684,0.759892,0.848599,-0.052189,0.860177,0.780473,-0.041762,0.781111,0.863631,-0.063519,0,0,1
748,'2026/05/14 11:51:15:993',3,0.758346,0.940217,0,0.739312,0.67143,-0.050872,0.745067,0.702508,-0.016936,0.730523,0.48435,-0.069196,0.790397,0.713296,-0.022331,0.731947,0.793777,-0.073811,0.828395,0.739411,-0.031226,0.760331,0.84722,-0.05339,0.861249,0.778176,-0.042312,0.77867,0.862576,-0.064433,0,0,1
749,'2026/05/14 11:51:16:020',3,0.757124,0.940792,0,0.738575,0.658109,-0.047328,0.744481,0.701818,-0.014556,0.731422,0.482848,-0.066522,0.789466,0.714117,-0.020109,0.730276,0.79358,-0.071513,0.826937,0.741253,-0.029299,0.757825,0.847584,-0.05026,0.859241,0.780406,-0.040713,0.783136,0.861468,-0.061822,0,0,1
750,'2026/05/14 11:51:16:052',3,0.758437,0.940679,0,0.737571,0.660914,-0.048081,0.745366,0.701952,-0.01509,0.730456,0.482405,-0.067485,0.790158,0.713764,-0.020648,0.731157,0.79344,-0.07249,0.827348,0.740796,-0.029896,0.758555,0.848075,-0.051812,0.85952,0.780507,-0.041352,0.779388,0.864323,-0.064123,0,0,1
751,'2026/05/14 11:51:16:083',3,0.75878,0.939928,0,0.733564,0.659908,-0.04731,0.744408,0.701035,-0.015181,0.729569,0.481698,-0.066748,0.789398,0.712422,-0.020566,0.731058,0.794441,-0.071786,0.826679,0.739072,-0.029591,0.757879,0.847833,-0.050997,0.858915,0.778546,-0.040847,0.778468,0.864847,-0.063424,0,0,1
752,'2026/05/14 11:51:16:114',3,0.757444,0.939708,-0.000001,0.738843,0.665557,-0.047437,0.744778,0.700392,-0.014825,0.728519,0.484224,-0.066081,0.790049,0.711322,-0.0202,0.727836,0.792329,-0.070558,0.827729,0.738311,-0.029167,0.758068,0.846494,-0.050485,0.860093,0.778175,-0.040314,0.780314,0.861602,-0.062398,0,0,1
753,'2026/05/14 11:51:16:146',3,0.757083,0.940986,-0.000001,0.734671,0.670725,-0.051607,0.744983,0.702245,-0.017284,0.726797,0.486011,-0.070362,0.789882,0.713034,-0.022862,0.729139,0.793954,-0.074537,0.82754,0.738855,-0.031856,0.75851,0.848391,-0.05379,0.859982,0.777466,-0.043047,0.777904,0.86341,-0.064846,0,0,1
754,'2026/05/14 11:51:16:177',3,0.756256,0.939914,-0.000001,0.734647,0.656844,-0.04715,0.742368,0.698972,-0.014918,0.726514,0.484472,-0.066765,0.788551,0.710136,-0.019886,0.725565,0.791731,-0.070068,0.826708,0.737149,-0.028619,0.754592,0.846865,-0.050091,0.85941,0.7769,-0.039606,0.780341,0.860972,-0.061777,0,0,1
755,'2026/05/14 11:51:16:224',3,0.756302,0.941306,-0.000001,0.734136,0.653379,-0.04439,0.742786,0.69984,-0.01308,0.726853,0.484278,-0.063282,0.788342,0.710914,-0.018088,0.726671,0.791744,-0.067996,0.826247,0.737392,-0.026846,0.756099,0.846592,-0.048854,0.85883,0.776627,-0.037829,0.777908,0.86254,-0.060922,0,0,1
756,'2026/05/14 11:51:16:255',3,0.757064,0.941806,-0.000001,0.729539,0.653382,-0.048841,0.742122,0.69997,-0.014063,0.726409,0.483949,-0.067157,0.787707,0.712302,-0.019496,0.725969,0.793634,-0.072268,0.825612,0.738407,-0.028755,0.754054,0.846994,-0.050997,0.858418,0.776826,-0.040288,0.779239,0.86139,-0.063454,0,0,1
757,'2026/05/14 11:51:16:286',3,0.757114,0.941891,0,0.734666,0.662463,-0.049405,0.742026,0.701323,-0.01411,0.727376,0.484442,-0.067351,0.787192,0.712832,-0.019724,0.726329,0.793764,-0.072113,0.825021,0.739094,-0.029028,0.753042,0.846258,-0.050125,0.857805,0.777651,-0.040614,0.77985,0.860429,-0.062419,0,0,1
758,'2026/05/14 11:51:16:319',3,0.756707,0.939619,0,0.734066,0.661768,-0.047945,0.74388,0.700905,-0.015544,0.727743,0.483294,-0.066237,0.78845,0.711902,-0.020939,0.728647,0.791765,-0.070878,0.825676,0.738627,-0.029813,0.758254,0.845578,-0.051202,0.857864,0.778406,-0.04087,0.775833,0.862926,-0.062842,0,0,1
759,'2026/05/14 11:51:16:353',3,0.756065,0.94167,-0.000001,0.735437,0.651843,-0.044607,0.742757,0.701589,-0.012636,0.728406,0.484078,-0.0632,0.787125,0.714332,-0.018512,0.728195,0.793849,-0.069142,0.824458,0.741016,-0.027967,0.755074,0.847513,-0.048319,0.856835,0.77985,-0.039566,0.781704,0.862895,-0.059953,0,0,1
760,'2026/05/14 11:51:16:382',3,0.755111,0.94062,-0.000001,0.732753,0.647211,-0.043147,0.742879,0.701605,-0.01272,0.727851,0.484644,-0.062373,0.787222,0.714145,-0.018396,0.72751,0.79353,-0.068543,0.824636,0.741174,-0.027697,0.755542,0.847237,-0.048431,0.857466,0.780359,-0.039099,0.780568,0.861865,-0.059379,0,0,1
761,'2026/05/14 11:51:16:416',3,0.756751,0.94233,-0.000001,0.728757,0.644953,-0.047487,0.743004,0.698636,-0.0133,0.727212,0.48227,-0.066371,0.788327,0.711632,-0.018279,0.724616,0.793415,-0.071925,0.826066,0.73779,-0.027235,0.752491,0.846123,-0.050299,0.858718,0.775786,-0.038563,0.780049,0.860926,-0.062667,0,0,1
762,'2026/05/14 11:51:16:445',3,0.75692,0.941319,0,0.731362,0.662766,-0.049838,0.741607,0.701892,-0.01455,0.725773,0.483674,-0.067799,0.787119,0.713229,-0.020049,0.727082,0.794849,-0.072209,0.824909,0.739135,-0.02932,0.755085,0.846407,-0.050568,0.857973,0.777521,-0.040897,0.778884,0.860711,-0.063176,0,0,1
763,'2026/05/14 11:51:16:479',3,0.756568,0.9437,-0.000001,0.729777,0.65138,-0.048772,0.742237,0.699232,-0.012846,0.726148,0.482724,-0.066415,0.787485,0.71189,-0.018422,0.724294,0.79425,-0.072602,0.825433,0.738174,-0.027964,0.752727,0.846921,-0.051174,0.858444,0.776554,-0.039815,0.780356,0.860673,-0.063469,0,0,1
764,'2026/05/14 11:51:16:509',3,0.756308,0.942429,-0.000001,0.72831,0.647843,-0.047292,0.741795,0.698858,-0.01446,0.726457,0.48251,-0.066725,0.787537,0.711543,-0.019585,0.725777,0.794204,-0.071654,0.825576,0.738295,-0.02853,0.75408,0.846659,-0.051329,0.858457,0.777359,-0.039757,0.777411,0.863442,-0.06418,0,0,1
765,'2026/05/14 11:51:16:541',3,0.756323,0.941935,-0.000001,0.732264,0.650771,-0.04455,0.742087,0.701865,-0.013832,0.726881,0.484474,-0.064133,0.786975,0.713899,-0.019437,0.727394,0.793791,-0.069922,0.824557,0.740497,-0.028651,0.755617,0.848371,-0.050109,0.857263,0.779588,-0.040012,0.777277,0.863992,-0.062137,0,0,1
766,'2026/05/14 11:51:16:576',3,0.756683,0.941259,0,0.731823,0.651105,-0.046584,0.742497,0.700869,-0.01398,0.726905,0.484071,-0.06544,0.787314,0.712947,-0.019236,0.727068,0.793922,-0.070324,0.824902,0.739578,-0.028246,0.754527,0.847425,-0.049274,0.857744,0.778542,-0.039525,0.778405,0.862253,-0.061026,0,0,1
767,'2026/05/14 11:51:16:628',3,0.756497,0.941802,-0.000001,0.733087,0.651752,-0.044703,0.743075,0.700405,-0.014294,0.725756,0.4842,-0.064384,0.788304,0.711503,-0.019302,0.726419,0.793094,-0.068616,0.825987,0.737913,-0.027952,0.756152,0.846985,-0.04923,0.858578,0.777228,-0.038836,0.77694,0.863102,-0.062018,0,0,1
768,'2026/05/14 11:51:16:665',3,0.756902,0.941643,-0.000001,0.737931,0.676456,-0.051156,0.742701,0.701833,-0.015493,0.725388,0.485592,-0.068237,0.788296,0.712004,-0.02105,0.726292,0.793441,-0.072822,0.826355,0.737986,-0.030183,0.756169,0.846764,-0.052185,0.858826,0.776625,-0.041533,0.78068,0.863611,-0.063475,0,0,1
769,'2026/05/14 11:51:16:704',3,0.756151,0.941137,-0.000001,0.729733,0.647418,-0.045263,0.742127,0.698883,-0.012729,0.725593,0.483186,-0.064265,0.788065,0.711013,-0.017926,0.725674,0.79379,-0.069455,0.826269,0.737465,-0.026956,0.753223,0.848459,-0.049333,0.859013,0.776037,-0.038224,0.779524,0.864285,-0.061241,0,0,1
770,'2026/05/14 11:51:16:742',3,0.756416,0.942657,-0.000001,0.732185,0.653973,-0.046463,0.740913,0.702209,-0.013698,0.725716,0.484232,-0.065652,0.786159,0.713728,-0.019086,0.726458,0.79449,-0.070377,0.824036,0.739811,-0.028201,0.753299,0.847276,-0.048991,0.856832,0.778081,-0.039585,0.779463,0.861794,-0.061471,0,0,1
771,'2026/05/14 11:51:16:773',3,0.756879,0.942253,-0.000001,0.729851,0.657694,-0.050033,0.741666,0.700471,-0.01428,0.724759,0.482548,-0.068152,0.787293,0.712034,-0.01978,0.725135,0.794621,-0.072893,0.825327,0.738034,-0.029117,0.753663,0.846817,-0.051401,0.858036,0.776274,-0.040751,0.780277,0.861765,-0.063567,0,0,1
772,'2026/05/14 11:51:16:804',3,0.75783,0.94323,-0.000001,0.727563,0.648572,-0.048005,0.741567,0.700353,-0.013305,0.724318,0.482836,-0.066264,0.787048,0.711745,-0.018522,0.7248,0.79578,-0.071986,0.824968,0.737141,-0.027728,0.753633,0.848492,-0.050708,0.858134,0.775019,-0.039309,0.77886,0.861441,-0.063668,0,0,1
773,'2026/05/14 11:51:16:835',3,0.755861,0.942434,0,0.729286,0.649757,-0.047947,0.741059,0.701099,-0.013302,0.724701,0.483882,-0.066198,0.786201,0.713145,-0.018589,0.725062,0.795362,-0.071624,0.824058,0.738976,-0.027761,0.752816,0.846489,-0.04988,0.857156,0.77695,-0.03922,0.779757,0.860736,-0.062094,0,0,1
774,'2026/05/14 11:51:16:867',3,0.755953,0.942944,-0.000001,0.728125,0.645617,-0.043852,0.74144,0.699689,-0.0115,0.72512,0.483181,-0.061528,0.786636,0.712615,-0.017084,0.724355,0.792791,-0.068372,0.824601,0.738785,-0.026527,0.753154,0.846334,-0.04919,0.857701,0.777005,-0.038155,0.778683,0.86263,-0.061908,0,0,1
775,'2026/05/14 11:51:33:491',4,0.746684,0.95258,0,0.744373,0.695191,-0.087858,0.694744,0.686686,-0.021157,0.640347,0.479486,-0.083452,0.748033,0.69051,-0.024016,0.82545,0.44434,-0.071831,0.790364,0.724741,-0.032238,0.736819,0.804544,-0.071094,0.825324,0.777,-0.042936,0.761073,0.825873,-0.050124,1,1,0
776,'2026/05/14 11:51:33:522',4,0.746913,0.950883,0,0.74472,0.694504,-0.08872,0.694126,0.685919,-0.022251,0.641003,0.481557,-0.084563,0.747092,0.689537,-0.024697,0.824541,0.446493,-0.073133,0.789703,0.723529,-0.032449,0.736046,0.805157,-0.070585,0.825203,0.775854,-0.042731,0.762368,0.825557,-0.04979,1,1,0
777,'2026/05/14 11:51:33:552',4,0.748591,0.952416,0,0.742877,0.69453,-0.087831,0.694877,0.683472,-0.017898,0.640949,0.482805,-0.079272,0.748248,0.688429,-0.020913,0.824749,0.445903,-0.069574,0.790375,0.72377,-0.029479,0.736773,0.806275,-0.069108,0.825148,0.777262,-0.040356,0.762013,0.827656,-0.048172,1,1,0
778,'2026/05/14 11:51:33:582',4,0.748488,0.954231,0,0.74335,0.697042,-0.091439,0.694728,0.685495,-0.019374,0.640788,0.482416,-0.08352,0.747361,0.68995,-0.02196,0.823282,0.445847,-0.072626,0.789279,0.724574,-0.03019,0.737086,0.803988,-0.069776,0.82437,0.777618,-0.040949,0.762484,0.824798,-0.048716,1,1,0
779,'2026/05/14 11:51:33:616',4,0.748558,0.952825,0,0.743291,0.697999,-0.087741,0.693918,0.68545,-0.018238,0.636628,0.483841,-0.082813,0.747155,0.689715,-0.021389,0.820611,0.446047,-0.072265,0.789507,0.72369,-0.030091,0.736312,0.805115,-0.070172,0.824468,0.775931,-0.041174,0.760389,0.825798,-0.048589,1,1,0
780,'2026/05/14 11:51:33:647',4,0.751881,0.950149,0,0.742039,0.699152,-0.091311,0.693324,0.685804,-0.02037,0.636067,0.484815,-0.083609,0.746314,0.690352,-0.022965,0.817467,0.45003,-0.074048,0.788005,0.723309,-0.031219,0.737191,0.805214,-0.068616,0.823022,0.775019,-0.042017,0.761921,0.825462,-0.051824,1,1,0
781,'2026/05/14 11:51:33:677',4,0.751014,0.949347,0,0.740079,0.697666,-0.092551,0.692199,0.686058,-0.02136,0.635158,0.486432,-0.084371,0.745163,0.690198,-0.023658,0.8155,0.449228,-0.075089,0.78716,0.722693,-0.031607,0.73678,0.805018,-0.070006,0.822587,0.773641,-0.04209,0.761449,0.82473,-0.052539,1,1,0
782,'2026/05/14 11:51:33:709',4,0.748253,0.951506,0,0.739783,0.696882,-0.0898,0.691503,0.685719,-0.019152,0.63317,0.483494,-0.083015,0.744066,0.689503,-0.021919,0.814909,0.446497,-0.072166,0.78607,0.723013,-0.030193,0.733977,0.804087,-0.068379,0.821634,0.774567,-0.040896,0.760238,0.823895,-0.048015,1,1,0
783,'2026/05/14 11:51:33:741',4,0.749744,0.953316,0,0.739103,0.696008,-0.086777,0.692238,0.687958,-0.018314,0.632244,0.486402,-0.081745,0.744779,0.691895,-0.021308,0.815367,0.447026,-0.07171,0.786688,0.724878,-0.029762,0.735102,0.80532,-0.067664,0.8219,0.775908,-0.040617,0.760609,0.824954,-0.048189,1,1,0
784,'2026/05/14 11:51:33:775',4,0.749045,0.952212,0,0.740014,0.69533,-0.088146,0.692139,0.688062,-0.018685,0.631811,0.490655,-0.082851,0.744808,0.69233,-0.022258,0.81515,0.447087,-0.073436,0.786694,0.725033,-0.031224,0.734808,0.804806,-0.067312,0.821958,0.776342,-0.042579,0.760419,0.822854,-0.048784,1,1,0
785,'2026/05/14 11:51:33:823',4,0.749902,0.952682,0,0.739486,0.694106,-0.088736,0.692827,0.686576,-0.017326,0.634599,0.482909,-0.082146,0.744589,0.691225,-0.021043,0.816229,0.44608,-0.07479,0.786093,0.724551,-0.030102,0.733199,0.806079,-0.067194,0.821809,0.775782,-0.041581,0.760222,0.820082,-0.04647,1,1,0
786,'2026/05/14 11:51:33:858',4,0.751133,0.948368,0,0.7406,0.696515,-0.090692,0.69371,0.685345,-0.020023,0.635263,0.487754,-0.082657,0.746199,0.689458,-0.022931,0.816139,0.449085,-0.073924,0.787878,0.722066,-0.031359,0.737742,0.804361,-0.067962,0.822855,0.773541,-0.04232,0.761766,0.826239,-0.051176,1,1,0
787,'2026/05/14 11:51:33:902',4,0.751225,0.948842,0,0.742072,0.696967,-0.090522,0.694118,0.685295,-0.020244,0.635634,0.487004,-0.082833,0.74679,0.689723,-0.022897,0.816542,0.449294,-0.073367,0.788209,0.722445,-0.031126,0.737536,0.804408,-0.068201,0.822738,0.773771,-0.041899,0.761792,0.826091,-0.05162,1,1,0
788,'2026/05/14 11:51:33:929',4,0.751797,0.950191,0,0.741255,0.699212,-0.093259,0.692539,0.685375,-0.021735,0.635651,0.485803,-0.08525,0.745738,0.689324,-0.024085,0.815221,0.450244,-0.076278,0.787966,0.721708,-0.032046,0.737873,0.805098,-0.070361,0.823459,0.772891,-0.042551,0.762828,0.82504,-0.052361,1,1,0
789,'2026/05/14 11:51:33:961',4,0.751682,0.948879,0,0.740236,0.696399,-0.089909,0.692961,0.684185,-0.020075,0.634552,0.486655,-0.081773,0.74606,0.687725,-0.022377,0.816529,0.449129,-0.07221,0.787759,0.720428,-0.030289,0.737555,0.803721,-0.067448,0.822849,0.771839,-0.040778,0.761558,0.825557,-0.051293,1,1,0
790,'2026/05/14 11:51:33:993',4,0.749818,0.952356,0,0.741104,0.696337,-0.090021,0.692771,0.686973,-0.019428,0.63459,0.484844,-0.083686,0.745392,0.69056,-0.0224,0.817604,0.44505,-0.073947,0.787537,0.723755,-0.030789,0.735735,0.80523,-0.069139,0.823269,0.77507,-0.041576,0.761964,0.825098,-0.048112,1,1,0
791,'2026/05/14 11:51:34:023',4,0.751692,0.951402,0,0.74188,0.696776,-0.088475,0.693071,0.686491,-0.01971,0.633503,0.486544,-0.081066,0.746689,0.690246,-0.022287,0.816553,0.445028,-0.071397,0.789065,0.723843,-0.030415,0.736373,0.805928,-0.068267,0.824718,0.775961,-0.040891,0.762189,0.82645,-0.048831,1,1,0
792,'2026/05/14 11:51:34:053',4,0.752428,0.95224,0,0.743155,0.698195,-0.090046,0.694084,0.686814,-0.020483,0.636632,0.482971,-0.084258,0.746832,0.690974,-0.022889,0.817773,0.447121,-0.074181,0.789205,0.724138,-0.030863,0.738913,0.805869,-0.070146,0.825386,0.775348,-0.04132,0.763718,0.823912,-0.050082,1,1,0
793,'2026/05/14 11:51:34:085',4,0.75409,0.951084,0,0.74626,0.699798,-0.092138,0.695379,0.68622,-0.02061,0.637894,0.484369,-0.085031,0.7486,0.690414,-0.02291,0.819996,0.447646,-0.073632,0.791022,0.723614,-0.030917,0.740736,0.804429,-0.069658,0.827138,0.77533,-0.04145,0.764358,0.823787,-0.05045,1,1,0
794,'2026/05/14 11:51:34:119',4,0.753756,0.952267,0,0.747307,0.696633,-0.092036,0.696811,0.685929,-0.020082,0.640019,0.482934,-0.08484,0.749338,0.69006,-0.02256,0.822108,0.445469,-0.074858,0.791366,0.723927,-0.030619,0.741312,0.805567,-0.07017,0.827222,0.776083,-0.041186,0.766489,0.823258,-0.049531,1,1,0
795,'2026/05/14 11:51:34:149',4,0.755508,0.948718,0,0.747857,0.697655,-0.092172,0.696734,0.685678,-0.023701,0.641284,0.483718,-0.088031,0.749797,0.689403,-0.026081,0.822656,0.445929,-0.077912,0.792809,0.723148,-0.033686,0.740667,0.804453,-0.071696,0.829413,0.775243,-0.043729,0.767444,0.82631,-0.051637,1,1,0
796,'2026/05/14 11:51:34:179',4,0.753018,0.950179,0,0.746189,0.696239,-0.092048,0.696619,0.686031,-0.021881,0.640513,0.482648,-0.084816,0.749619,0.689129,-0.023693,0.823505,0.444176,-0.072592,0.79231,0.722887,-0.031076,0.741282,0.803763,-0.070857,0.828637,0.774688,-0.041012,0.766411,0.824697,-0.049732,1,1,0
797,'2026/05/14 11:51:34:223',4,0.754879,0.949108,0,0.74784,0.698284,-0.091159,0.696507,0.685343,-0.020871,0.638307,0.483129,-0.084562,0.750082,0.689384,-0.023318,0.823028,0.445943,-0.07338,0.792401,0.723748,-0.031342,0.742015,0.80454,-0.069726,0.827891,0.776926,-0.04174,0.767125,0.826051,-0.050229,1,1,0
798,'2026/05/14 11:51:34:258',4,0.754147,0.950829,0,0.747412,0.700766,-0.093403,0.696259,0.684808,-0.022567,0.637297,0.481721,-0.088435,0.74998,0.689407,-0.024813,0.82093,0.446659,-0.077148,0.792211,0.723386,-0.032716,0.740478,0.805011,-0.072407,0.827815,0.776193,-0.043072,0.765596,0.825944,-0.05329,1,1,0
799,'2026/05/14 11:51:34:297',4,0.753225,0.951282,0,0.74653,0.69868,-0.092206,0.696406,0.687919,-0.023221,0.63645,0.483967,-0.090031,0.749521,0.691959,-0.0259,0.82032,0.44526,-0.077593,0.792013,0.726636,-0.033973,0.738149,0.805912,-0.072616,0.827785,0.779758,-0.044455,0.764191,0.828441,-0.052327,1,1,0
800,'2026/05/14 11:51:34:329',4,0.750856,0.951985,0,0.744501,0.697361,-0.089295,0.69461,0.686613,-0.020504,0.634533,0.482832,-0.085533,0.747954,0.690694,-0.02338,0.819585,0.444279,-0.074421,0.790059,0.725627,-0.03174,0.736888,0.806187,-0.070726,0.82554,0.778988,-0.042487,0.762418,0.827933,-0.0502,1,1,0
801,'2026/05/14 11:51:34:369',4,0.749755,0.951565,0,0.742971,0.700118,-0.089364,0.693296,0.687421,-0.019457,0.631422,0.484083,-0.084657,0.74686,0.691013,-0.021974,0.81739,0.445768,-0.073582,0.788798,0.724791,-0.030138,0.735188,0.805906,-0.069697,0.824139,0.777404,-0.040649,0.760171,0.827269,-0.049052,1,1,0
802,'2026/05/14 11:51:34:400',4,0.749774,0.949731,0,0.742032,0.702067,-0.093953,0.690702,0.686536,-0.021802,0.630073,0.484805,-0.087932,0.744475,0.690113,-0.023665,0.814257,0.446438,-0.076081,0.786916,0.723244,-0.031232,0.733688,0.807406,-0.070841,0.822932,0.77523,-0.041252,0.759311,0.828648,-0.050467,1,1,0
803,'2026/05/14 11:51:34:431',4,0.748841,0.95212,0,0.743567,0.703368,-0.091506,0.691307,0.687452,-0.020692,0.629863,0.48354,-0.08753,0.744962,0.691672,-0.022792,0.815268,0.44826,-0.07525,0.787509,0.724844,-0.03053,0.73512,0.806876,-0.070303,0.823071,0.77684,-0.040692,0.759634,0.829232,-0.049775,1,1,0
804,'2026/05/14 11:51:34:462',4,0.747869,0.951511,0,0.741899,0.702701,-0.094139,0.689287,0.688132,-0.024924,0.629188,0.48609,-0.09267,0.742332,0.692088,-0.027037,0.812282,0.447335,-0.07955,0.785398,0.725749,-0.034654,0.733593,0.808804,-0.073573,0.821894,0.777755,-0.044783,0.759304,0.828804,-0.053816,1,1,0
805,'2026/05/14 11:51:34:493',4,0.748622,0.950062,0,0.7401,0.703778,-0.092403,0.686876,0.688744,-0.024149,0.627369,0.483581,-0.091005,0.740263,0.693148,-0.026008,0.810681,0.447977,-0.078334,0.783115,0.72596,-0.033301,0.730988,0.807594,-0.071854,0.819391,0.776726,-0.043036,0.757331,0.828833,-0.05309,1,1,0
806,'2026/05/14 11:51:34:524',4,0.748755,0.94797,0,0.737514,0.702853,-0.091069,0.686514,0.688409,-0.021665,0.624536,0.485524,-0.088177,0.740696,0.691516,-0.02415,0.809533,0.445954,-0.075874,0.782935,0.724436,-0.032241,0.730626,0.809313,-0.071033,0.818293,0.776542,-0.042687,0.75587,0.831329,-0.053655,1,1,0
807,'2026/05/14 11:51:34:556',4,0.749579,0.949436,0,0.737028,0.702565,-0.089208,0.685929,0.68968,-0.021538,0.623648,0.484649,-0.084991,0.739531,0.692546,-0.023914,0.806694,0.446214,-0.074197,0.781418,0.724969,-0.031791,0.73132,0.809757,-0.069979,0.816729,0.77581,-0.042019,0.755526,0.831717,-0.053207,1,1,0
808,'2026/05/14 11:51:34:586',4,0.747998,0.950763,0,0.736889,0.703473,-0.090484,0.686046,0.690345,-0.021696,0.623202,0.486576,-0.085974,0.739787,0.692657,-0.023969,0.808314,0.446313,-0.075056,0.782024,0.725166,-0.03178,0.7304,0.809569,-0.071053,0.817537,0.776664,-0.04196,0.755584,0.831457,-0.052667,1,1,0
809,'2026/05/14 11:51:34:622',4,0.74887,0.947763,0,0.736753,0.703038,-0.092823,0.685418,0.68812,-0.023519,0.624299,0.48458,-0.090095,0.739466,0.691166,-0.02522,0.807253,0.445627,-0.076624,0.781708,0.724128,-0.032536,0.730336,0.808455,-0.071979,0.817127,0.775909,-0.042247,0.754891,0.830685,-0.054321,1,1,0
810,'2026/05/14 11:51:34:655',4,0.749721,0.947769,0,0.737163,0.703118,-0.091828,0.685421,0.687791,-0.022429,0.623951,0.485057,-0.088678,0.73966,0.690308,-0.023969,0.807795,0.446368,-0.075195,0.78198,0.722825,-0.031254,0.730002,0.809003,-0.071096,0.817461,0.774374,-0.041009,0.754283,0.831561,-0.053853,1,1,0
811,'2026/05/14 11:51:34:685',4,0.749864,0.948276,0,0.737907,0.701227,-0.090298,0.685805,0.687792,-0.021843,0.624181,0.484223,-0.087902,0.739769,0.69151,-0.023739,0.807471,0.446577,-0.075179,0.781943,0.725014,-0.031312,0.731056,0.808985,-0.070984,0.817464,0.777224,-0.041221,0.754815,0.831278,-0.054153,1,1,0
812,'2026/05/14 11:51:34:720',4,0.748517,0.951046,0,0.739045,0.706115,-0.091339,0.686187,0.689412,-0.023249,0.624643,0.486704,-0.088819,0.739538,0.69308,-0.025572,0.808232,0.447102,-0.076442,0.781947,0.725378,-0.033467,0.730638,0.80879,-0.071411,0.817929,0.776189,-0.043775,0.755886,0.831232,-0.054181,1,1,0
813,'2026/05/14 11:51:34:763',4,0.749345,0.948272,0,0.7382,0.704084,-0.093727,0.686215,0.688278,-0.024938,0.624044,0.485398,-0.091913,0.739808,0.691722,-0.026778,0.809201,0.446792,-0.078204,0.782229,0.724361,-0.034147,0.731169,0.809109,-0.071732,0.818272,0.775684,-0.044035,0.756213,0.832176,-0.055712,1,1,0
814,'2026/05/14 11:51:34:791',4,0.750923,0.949682,0,0.738357,0.70404,-0.093261,0.686571,0.6896,-0.022913,0.623749,0.485346,-0.089117,0.740724,0.692289,-0.024416,0.808352,0.446537,-0.076087,0.783408,0.724774,-0.031609,0.730862,0.808993,-0.071163,0.819408,0.776129,-0.04126,0.755942,0.831068,-0.052488,1,1,0
815,'2026/05/14 11:51:34:821',4,0.749707,0.949833,0,0.740674,0.705087,-0.093915,0.686591,0.689675,-0.026061,0.62598,0.483668,-0.092413,0.740449,0.693285,-0.027463,0.808236,0.448242,-0.079021,0.783492,0.725498,-0.034321,0.733595,0.809568,-0.071981,0.820006,0.776126,-0.043746,0.758538,0.830336,-0.055245,1,1,0
816,'2026/05/14 11:51:34:851',4,0.748895,0.951208,0,0.739085,0.704497,-0.09369,0.687214,0.689313,-0.02349,0.624522,0.486577,-0.090621,0.740864,0.692804,-0.025499,0.808568,0.447118,-0.077896,0.783461,0.725467,-0.033144,0.730913,0.807643,-0.072438,0.819623,0.777063,-0.043255,0.755933,0.829654,-0.05382,1,1,0
817,'2026/05/14 11:51:34:882',4,0.749366,0.950012,0,0.740256,0.704155,-0.094965,0.687542,0.690498,-0.026886,0.626052,0.486125,-0.093978,0.740913,0.693587,-0.028605,0.808688,0.447613,-0.080586,0.784225,0.726057,-0.035711,0.732535,0.80915,-0.074028,0.820978,0.776706,-0.045371,0.758613,0.829345,-0.055528,1,1,0
818,'2026/05/14 11:51:34:913',4,0.749362,0.94992,0,0.741773,0.702356,-0.094352,0.687948,0.690473,-0.026932,0.627429,0.486716,-0.093553,0.740761,0.69333,-0.028605,0.809785,0.447989,-0.080802,0.784222,0.725534,-0.035602,0.732492,0.809805,-0.074111,0.821208,0.775778,-0.045162,0.758946,0.828744,-0.054792,1,1,0
819,'2026/05/14 11:51:34:944',4,0.749897,0.951162,0,0.741177,0.704614,-0.093156,0.688915,0.688784,-0.02313,0.625792,0.485569,-0.090552,0.742355,0.692411,-0.025423,0.810044,0.448527,-0.078699,0.784943,0.724897,-0.033273,0.733779,0.807928,-0.072084,0.821052,0.776406,-0.043593,0.759477,0.828778,-0.053875,1,1,0
820,'2026/05/14 11:51:34:975',4,0.751074,0.949767,0,0.742281,0.703253,-0.092672,0.689508,0.688661,-0.024716,0.627426,0.484065,-0.091552,0.742897,0.692672,-0.026928,0.811106,0.447403,-0.079442,0.785887,0.725454,-0.034544,0.73339,0.808172,-0.07214,0.822391,0.776712,-0.044656,0.759804,0.828839,-0.054648,1,1,0
821,'2026/05/14 11:51:35:023',4,0.748914,0.952853,0,0.742273,0.700656,-0.090226,0.691361,0.688447,-0.022413,0.628516,0.485197,-0.089424,0.744727,0.691623,-0.025245,0.814562,0.444911,-0.077606,0.78736,0.725134,-0.033473,0.735442,0.806946,-0.073319,0.822841,0.777236,-0.044081,0.760199,0.828274,-0.052088,1,1,0
822,'2026/05/14 11:51:35:055',4,0.751055,0.94922,0,0.742598,0.702604,-0.094554,0.691255,0.688665,-0.025099,0.630893,0.485547,-0.091213,0.744661,0.691998,-0.027037,0.814715,0.448033,-0.079144,0.787683,0.725044,-0.034343,0.733931,0.809824,-0.073756,0.824114,0.776449,-0.044108,0.76001,0.828891,-0.05422,1,1,0
823,'2026/05/14 11:51:35:086',4,0.7508,0.949793,0,0.741882,0.701456,-0.092301,0.692073,0.688017,-0.021713,0.63015,0.48796,-0.08792,0.745554,0.691699,-0.024469,0.814531,0.445569,-0.076881,0.787991,0.724686,-0.032761,0.734295,0.807645,-0.071383,0.824089,0.776567,-0.043387,0.760228,0.828178,-0.051344,1,1,0
824,'2026/05/14 11:51:35:122',4,0.751584,0.949625,0,0.743483,0.701837,-0.094179,0.692768,0.687435,-0.024564,0.632071,0.484143,-0.092226,0.746066,0.691341,-0.026422,0.815468,0.448316,-0.079966,0.78891,0.724218,-0.033746,0.737014,0.807755,-0.073884,0.825374,0.775399,-0.043576,0.762185,0.827533,-0.053701,1,1,0
825,'2026/05/14 11:51:35:150',4,0.752349,0.950375,0,0.743559,0.700962,-0.091281,0.692346,0.688829,-0.021858,0.632087,0.48491,-0.087184,0.745514,0.692668,-0.024226,0.815972,0.448336,-0.076526,0.788167,0.724951,-0.032067,0.737263,0.806837,-0.070233,0.82449,0.77583,-0.042386,0.762519,0.826341,-0.051442,1,1,0
826,'2026/05/14 11:51:35:182',4,0.752197,0.949141,0,0.742856,0.700324,-0.091693,0.69252,0.688692,-0.020727,0.631273,0.488817,-0.085836,0.745757,0.692346,-0.023312,0.814132,0.447115,-0.075735,0.788205,0.724795,-0.031503,0.735473,0.807229,-0.071116,0.824261,0.776072,-0.042048,0.760531,0.827388,-0.051317,1,1,0
827,'2026/05/14 11:51:35:213',4,0.753451,0.949499,0,0.742209,0.698975,-0.090574,0.692666,0.688635,-0.021468,0.631436,0.488272,-0.086728,0.745641,0.692912,-0.024226,0.813918,0.449347,-0.076432,0.787905,0.725319,-0.032443,0.736826,0.805834,-0.070345,0.823601,0.776432,-0.043045,0.761871,0.826232,-0.052105,1,1,0
828,'2026/05/14 11:51:35:247',4,0.753299,0.949211,0,0.741415,0.699058,-0.086901,0.692328,0.688819,-0.019921,0.631291,0.487373,-0.084736,0.745081,0.692464,-0.022753,0.812611,0.450222,-0.074155,0.787548,0.723964,-0.031019,0.738017,0.804477,-0.068228,0.823784,0.774329,-0.041703,0.761573,0.824975,-0.051149,1,1,0
829,'2026/05/14 11:51:35:279',4,0.7529,0.948701,0,0.741537,0.69891,-0.088879,0.692243,0.688793,-0.019273,0.630481,0.48871,-0.084609,0.745731,0.692323,-0.021634,0.812305,0.449543,-0.073133,0.788184,0.724579,-0.029624,0.735099,0.805678,-0.069254,0.824086,0.775064,-0.039974,0.759571,0.824994,-0.048939,1,1,0
830,'2026/05/14 11:51:35:321',4,0.750852,0.949646,0,0.741663,0.699419,-0.088306,0.693301,0.688915,-0.020058,0.630869,0.488523,-0.084299,0.745966,0.692223,-0.02245,0.812905,0.448854,-0.072708,0.788076,0.724762,-0.030383,0.735868,0.805868,-0.070212,0.823708,0.77537,-0.040658,0.760451,0.826814,-0.050086,1,1,0
831,'2026/05/14 11:51:35:350',4,0.751864,0.949535,0,0.742928,0.698754,-0.088967,0.692557,0.688482,-0.019757,0.630152,0.488187,-0.083132,0.745662,0.691623,-0.022155,0.81272,0.449039,-0.073558,0.78828,0.723722,-0.030041,0.735437,0.80674,-0.069696,0.824221,0.773697,-0.040296,0.760874,0.82589,-0.049356,1,1,0
832,'2026/05/14 11:51:35:381',4,0.751124,0.949005,0,0.741556,0.699116,-0.090605,0.693456,0.688442,-0.020016,0.63148,0.488245,-0.085206,0.746573,0.691797,-0.022879,0.813533,0.44797,-0.075696,0.788669,0.724963,-0.031234,0.736174,0.807795,-0.071364,0.824213,0.776883,-0.041866,0.760939,0.827489,-0.050721,1,1,0
833,'2026/05/14 11:51:35:422',4,0.750827,0.949628,0,0.74076,0.698656,-0.09019,0.692853,0.689349,-0.019725,0.631033,0.488781,-0.084798,0.746042,0.692418,-0.022757,0.813036,0.446347,-0.075235,0.788087,0.725339,-0.031287,0.734942,0.807502,-0.070818,0.823689,0.777083,-0.042092,0.760404,0.826388,-0.050267,1,1,0
834,'2026/05/14 11:51:35:460',4,0.751407,0.949309,0,0.741827,0.697536,-0.087378,0.692514,0.688667,-0.018899,0.630948,0.488237,-0.08195,0.745396,0.692022,-0.02223,0.813258,0.446403,-0.072854,0.787532,0.725245,-0.030927,0.734702,0.807806,-0.069307,0.823015,0.776611,-0.041895,0.76038,0.827522,-0.049193,1,1,0
835,'2026/05/14 11:51:35:492',4,0.750597,0.950091,0,0.741236,0.696599,-0.087724,0.691999,0.688678,-0.019525,0.631863,0.487767,-0.082014,0.744571,0.690967,-0.022055,0.813733,0.446614,-0.071543,0.786887,0.723387,-0.030049,0.735474,0.806139,-0.070011,0.822749,0.773678,-0.040423,0.7606,0.825135,-0.048816,1,1,0
836,'2026/05/14 11:51:35:522',4,0.750448,0.948523,0,0.73909,0.697476,-0.089254,0.692103,0.688945,-0.019713,0.630706,0.48713,-0.083526,0.74483,0.691876,-0.022405,0.813624,0.447385,-0.072309,0.787167,0.724587,-0.030563,0.735097,0.80709,-0.069468,0.823054,0.77553,-0.041043,0.760968,0.826936,-0.048371,1,1,0
837,'2026/05/14 11:51:35:553',4,0.750737,0.948991,0,0.739181,0.69719,-0.087513,0.691504,0.688468,-0.020081,0.629759,0.487244,-0.083563,0.743807,0.691814,-0.022767,0.812449,0.448888,-0.072504,0.786065,0.724268,-0.030783,0.734899,0.805299,-0.068427,0.822093,0.774653,-0.04114,0.759797,0.826471,-0.049089,1,1,0
838,'2026/05/14 11:51:35:585',4,0.751197,0.948686,0,0.740203,0.70008,-0.090369,0.691066,0.688767,-0.023049,0.631017,0.487007,-0.088637,0.743654,0.691919,-0.02551,0.810989,0.449309,-0.0776,0.786237,0.723559,-0.033235,0.736384,0.80404,-0.070995,0.822542,0.773384,-0.043427,0.761306,0.823895,-0.051582,1,1,0
839,'2026/05/14 11:51:35:615',4,0.751306,0.948586,0,0.738111,0.69972,-0.091364,0.690536,0.689416,-0.023084,0.632426,0.485916,-0.08866,0.743091,0.692883,-0.025048,0.81034,0.448951,-0.079191,0.785822,0.724263,-0.032343,0.736139,0.805972,-0.071165,0.822511,0.773385,-0.042207,0.76202,0.823656,-0.052052,1,1,0
840,'2026/05/14 11:51:35:646',4,0.750995,0.94839,0,0.739683,0.7,-0.090988,0.691087,0.689986,-0.022871,0.629134,0.487426,-0.088757,0.743847,0.693627,-0.025067,0.811069,0.449134,-0.077697,0.786477,0.72534,-0.032651,0.735345,0.806737,-0.071478,0.822794,0.7751,-0.042692,0.759794,0.827026,-0.052331,1,1,0
841,'2026/05/14 11:51:35:677',4,0.749338,0.948429,0,0.737103,0.697815,-0.088012,0.690948,0.690059,-0.022651,0.63125,0.489736,-0.08642,0.742843,0.692109,-0.024501,0.810791,0.44887,-0.075578,0.785446,0.723571,-0.031561,0.734338,0.805641,-0.070735,0.821833,0.772758,-0.041117,0.760186,0.824738,-0.050029,1,1,0
842,'2026/05/14 11:51:35:710',4,0.751142,0.947587,0,0.739345,0.699847,-0.089915,0.69051,0.690306,-0.021818,0.628333,0.489025,-0.086744,0.743417,0.693574,-0.024379,0.810624,0.449145,-0.075598,0.786029,0.725181,-0.032325,0.734532,0.807034,-0.070135,0.822257,0.774825,-0.04265,0.759702,0.826652,-0.051504,1,1,0
843,'2026/05/14 11:51:35:742',4,0.749549,0.949593,0,0.739754,0.700168,-0.090483,0.689711,0.690593,-0.022257,0.628837,0.487535,-0.087451,0.742474,0.693808,-0.024711,0.810273,0.449413,-0.077132,0.785289,0.72535,-0.032492,0.734955,0.806936,-0.071107,0.821753,0.774947,-0.042664,0.759867,0.826501,-0.051133,1,1,0
844,'2026/05/14 11:51:35:774',4,0.75035,0.948807,0,0.738676,0.698355,-0.090302,0.690306,0.690322,-0.022632,0.629128,0.489176,-0.08693,0.742981,0.693133,-0.024688,0.810763,0.448425,-0.076404,0.785762,0.724541,-0.032121,0.733135,0.808358,-0.071799,0.822231,0.77354,-0.041945,0.758608,0.827762,-0.05184,1,1,0
845,'2026/05/14 11:51:35:826',4,0.752144,0.948814,0,0.740247,0.70082,-0.091197,0.690213,0.690429,-0.022994,0.628469,0.488944,-0.088493,0.742957,0.694081,-0.025293,0.810071,0.448454,-0.076824,0.785519,0.725774,-0.032981,0.734659,0.80648,-0.070648,0.821627,0.77535,-0.043103,0.759049,0.828021,-0.05292,1,1,0
846,'2026/05/14 11:51:35:853',4,0.750403,0.950303,0,0.739214,0.700652,-0.092311,0.690072,0.689603,-0.02297,0.628858,0.489225,-0.08999,0.742662,0.693182,-0.02576,0.809842,0.448674,-0.07928,0.785357,0.72476,-0.033897,0.735762,0.805854,-0.072081,0.821799,0.77493,-0.044511,0.760517,0.825857,-0.053549,1,1,0
847,'2026/05/14 11:51:35:886',4,0.749837,0.950287,0,0.739201,0.699525,-0.088482,0.69061,0.68947,-0.021449,0.630112,0.488291,-0.085569,0.742931,0.692444,-0.024067,0.810945,0.44817,-0.075876,0.785349,0.724431,-0.031915,0.73476,0.806754,-0.07066,0.821503,0.774224,-0.042107,0.760579,0.826404,-0.050373,1,1,0
848,'2026/05/14 11:51:35:919',4,0.749251,0.949742,0,0.738354,0.698394,-0.088091,0.690789,0.688675,-0.020171,0.630672,0.488289,-0.084714,0.742433,0.691311,-0.022335,0.811389,0.448408,-0.074437,0.784431,0.723221,-0.029878,0.734819,0.805698,-0.068757,0.820575,0.773094,-0.03991,0.761326,0.822699,-0.047345,1,1,0
849,'2026/05/14 11:51:35:952',4,0.749397,0.949699,0,0.737066,0.698542,-0.08962,0.690451,0.689958,-0.022519,0.6301,0.49038,-0.088905,0.742327,0.693062,-0.025018,0.810507,0.44902,-0.077684,0.784599,0.724771,-0.032796,0.733696,0.805132,-0.070599,0.820949,0.774402,-0.043015,0.760147,0.824437,-0.050459,1,1,0
850,'2026/05/14 11:51:35:983',4,0.750377,0.949403,0,0.737583,0.699466,-0.091165,0.69012,0.689518,-0.022945,0.631069,0.489217,-0.089031,0.742009,0.692371,-0.024865,0.810167,0.449044,-0.078367,0.784134,0.72351,-0.032142,0.734022,0.806211,-0.070874,0.820655,0.772476,-0.04197,0.760977,0.823516,-0.050827,1,1,0
851,'2026/05/14 11:51:36:017',4,0.749226,0.949352,0,0.73679,0.696993,-0.088532,0.690077,0.689833,-0.020653,0.631902,0.489814,-0.085703,0.74174,0.692947,-0.023171,0.81008,0.449039,-0.077037,0.783944,0.724212,-0.030934,0.733341,0.807027,-0.069135,0.820617,0.773265,-0.041153,0.760502,0.822477,-0.048855,1,1,0
852,'2026/05/14 11:51:36:054',4,0.748669,0.947815,0,0.737257,0.697603,-0.089101,0.688835,0.688786,-0.023194,0.631401,0.48873,-0.088246,0.740737,0.692141,-0.025287,0.809458,0.450175,-0.07696,0.78359,0.723871,-0.032547,0.733243,0.807658,-0.068543,0.820665,0.7734,-0.042354,0.760101,0.82262,-0.048641,1,1,0
853,'2026/05/14 11:51:36:087',4,0.748847,0.948789,0,0.737977,0.699398,-0.08993,0.690213,0.688584,-0.020854,0.630361,0.489941,-0.086132,0.741982,0.691386,-0.023449,0.810956,0.448815,-0.07604,0.78401,0.723187,-0.031379,0.733581,0.805857,-0.069825,0.820091,0.772947,-0.04172,0.760261,0.824117,-0.04932,1,1,0
854,'2026/05/14 11:51:36:117',4,0.749349,0.949642,0,0.736827,0.699399,-0.087129,0.690407,0.689938,-0.020375,0.630083,0.490908,-0.084123,0.741833,0.691968,-0.022665,0.810095,0.449308,-0.073235,0.783708,0.723277,-0.03027,0.733724,0.805141,-0.068298,0.819592,0.772532,-0.040309,0.760537,0.824011,-0.04777,1,1,0
855,'2026/05/14 11:51:36:148',4,0.749214,0.948423,0,0.73664,0.698077,-0.089578,0.689366,0.689428,-0.022734,0.631376,0.489702,-0.08829,0.740848,0.69228,-0.02522,0.809807,0.448647,-0.078201,0.783231,0.723916,-0.032853,0.73267,0.806596,-0.070399,0.819764,0.773403,-0.042956,0.760736,0.82379,-0.050063,1,1,0
856,'2026/05/14 11:51:36:179',4,0.748944,0.948442,0,0.738614,0.70063,-0.091491,0.690145,0.689648,-0.022864,0.629615,0.489953,-0.089019,0.74193,0.692854,-0.025756,0.810584,0.449474,-0.078916,0.784245,0.724587,-0.033811,0.732921,0.80683,-0.072352,0.820377,0.774362,-0.04422,0.758849,0.826431,-0.052118,1,1,0
857,'2026/05/14 11:51:36:226',4,0.749842,0.948719,0,0.737843,0.700047,-0.08698,0.689272,0.688802,-0.021024,0.629228,0.48972,-0.084729,0.741153,0.692095,-0.023431,0.810296,0.449205,-0.073891,0.783008,0.723915,-0.031093,0.733889,0.804399,-0.068583,0.818971,0.773489,-0.041141,0.75933,0.82417,-0.049117,1,1,0
858,'2026/05/14 11:51:36:257',4,0.74912,0.949894,0,0.736798,0.69906,-0.089895,0.689992,0.690052,-0.021143,0.630021,0.489625,-0.086203,0.741459,0.692649,-0.02359,0.810051,0.449497,-0.076594,0.783161,0.724303,-0.031324,0.733056,0.805632,-0.07052,0.819129,0.773781,-0.04145,0.759645,0.824584,-0.049764,1,1,0
859,'2026/05/14 11:51:36:287',4,0.750333,0.948101,0,0.738009,0.702676,-0.091829,0.689411,0.688301,-0.021783,0.629007,0.490158,-0.087882,0.742087,0.691922,-0.024117,0.809188,0.450953,-0.076691,0.784444,0.723914,-0.031922,0.734666,0.804938,-0.06975,0.820307,0.774059,-0.042273,0.759941,0.824849,-0.05134,1,1,0
860,'2026/05/14 11:51:36:319',4,0.749038,0.948643,0,0.736581,0.699121,-0.089439,0.689457,0.690094,-0.021383,0.628885,0.490452,-0.086193,0.741035,0.692495,-0.023931,0.809584,0.449247,-0.075577,0.782896,0.724282,-0.031699,0.732385,0.804537,-0.070073,0.818797,0.774081,-0.041825,0.758768,0.825186,-0.04949,1,1,0
861,'2026/05/14 11:51:36:351',4,0.749754,0.948028,0,0.737368,0.700844,-0.088661,0.689385,0.688869,-0.021215,0.628868,0.489916,-0.086227,0.741813,0.692181,-0.023469,0.809486,0.451221,-0.074749,0.784034,0.723804,-0.031087,0.734554,0.804216,-0.068624,0.820096,0.773375,-0.041176,0.759381,0.824969,-0.049629,1,1,0
862,'2026/05/14 11:51:36:384',4,0.749882,0.949154,0,0.73699,0.700098,-0.091206,0.689169,0.689167,-0.022348,0.62934,0.488634,-0.088726,0.741465,0.692327,-0.02452,0.810361,0.44988,-0.077718,0.783832,0.723842,-0.03205,0.733479,0.806333,-0.070171,0.820266,0.773349,-0.042143,0.759653,0.824615,-0.05091,1,1,0
863,'2026/05/14 11:51:36:414',4,0.749888,0.949689,0,0.73687,0.698409,-0.089358,0.690154,0.688818,-0.021123,0.627717,0.4885,-0.084395,0.742412,0.691133,-0.023134,0.811488,0.44901,-0.071764,0.784337,0.723364,-0.030558,0.734653,0.805434,-0.068225,0.819959,0.773286,-0.040464,0.760476,0.826356,-0.048376,1,1,0
864,'2026/05/14 11:51:36:446',4,0.749039,0.948584,0,0.736914,0.697292,-0.088219,0.689637,0.690406,-0.020738,0.627791,0.489423,-0.084545,0.742018,0.692936,-0.023664,0.810651,0.447482,-0.075185,0.784068,0.725028,-0.031812,0.731203,0.807817,-0.070867,0.819593,0.774534,-0.042259,0.758741,0.827638,-0.050061,1,1,0
865,'2026/05/14 11:51:36:478',4,0.749211,0.951568,0,0.73579,0.697188,-0.088474,0.69075,0.690081,-0.019095,0.62977,0.490392,-0.082993,0.742002,0.692248,-0.021822,0.811408,0.448387,-0.073526,0.783696,0.723982,-0.029858,0.732251,0.806931,-0.06873,0.819586,0.773438,-0.040289,0.760307,0.823877,-0.046445,1,1,0
866,'2026/05/14 11:51:36:512',4,0.748422,0.950199,0,0.736798,0.698068,-0.086975,0.690695,0.689963,-0.018581,0.629842,0.489881,-0.080479,0.742327,0.692037,-0.021266,0.8111,0.447611,-0.070487,0.783964,0.724051,-0.029335,0.732978,0.806264,-0.068334,0.819347,0.773579,-0.039744,0.759754,0.824841,-0.046842,1,1,0
867,'2026/05/14 11:51:36:543',4,0.752376,0.946539,0,0.736172,0.698597,-0.09126,0.690413,0.688797,-0.023395,0.632012,0.490041,-0.087357,0.74256,0.691998,-0.02529,0.808504,0.454377,-0.077965,0.784497,0.723491,-0.032451,0.736401,0.805987,-0.070277,0.820336,0.77339,-0.042185,0.759447,0.823852,-0.052819,1,1,0
868,'2026/05/14 11:51:36:574',4,0.75098,0.946353,0,0.735969,0.697826,-0.089858,0.689685,0.688931,-0.022203,0.631643,0.490222,-0.085528,0.74199,0.692398,-0.024659,0.809379,0.452695,-0.077554,0.784109,0.723908,-0.032266,0.73597,0.806384,-0.069237,0.820441,0.773445,-0.042376,0.75983,0.822973,-0.051578,1,1,0
869,'2026/05/14 11:51:36:628',4,0.750642,0.947745,0,0.736117,0.695164,-0.089319,0.691153,0.689029,-0.020433,0.632199,0.488642,-0.084839,0.742841,0.692954,-0.023547,0.810928,0.452328,-0.077588,0.784676,0.72513,-0.031745,0.736015,0.805389,-0.069003,0.820926,0.775135,-0.042357,0.760643,0.820925,-0.049242,1,1,0
870,'2026/05/14 11:51:36:666',4,0.75327,0.945492,0,0.736922,0.698247,-0.091201,0.690319,0.68824,-0.023252,0.632451,0.491287,-0.086717,0.742622,0.69132,-0.025023,0.811167,0.454066,-0.076683,0.784722,0.722819,-0.032088,0.735432,0.805377,-0.068893,0.8209,0.772506,-0.041741,0.760497,0.823819,-0.052102,1,1,0
871,'2026/05/14 11:51:36:693',4,0.753278,0.944922,0,0.737345,0.699062,-0.090953,0.690391,0.688776,-0.022883,0.631964,0.492118,-0.086582,0.74247,0.691844,-0.025388,0.811398,0.453228,-0.077805,0.784496,0.72314,-0.033055,0.735556,0.80652,-0.068709,0.820736,0.772875,-0.043287,0.759725,0.825314,-0.052551,1,1,0
872,'2026/05/14 11:51:36:725',4,0.752031,0.945714,0,0.737377,0.697971,-0.092283,0.691364,0.6881,-0.023104,0.631725,0.493016,-0.087444,0.743506,0.692144,-0.025587,0.811911,0.45392,-0.078313,0.785254,0.723545,-0.033258,0.736374,0.805059,-0.070028,0.820839,0.772978,-0.04343,0.76092,0.823162,-0.051908,1,1,0
873,'2026/05/14 11:51:36:755',4,0.750482,0.947177,0,0.737253,0.698164,-0.091985,0.691158,0.687967,-0.020862,0.631437,0.492086,-0.087439,0.743008,0.692066,-0.024073,0.814193,0.452204,-0.078,0.784915,0.72451,-0.032475,0.732816,0.807229,-0.06873,0.821028,0.775156,-0.043288,0.760709,0.823963,-0.048776,1,1,0
874,'2026/05/14 11:51:36:786',4,0.750493,0.94668,0,0.738425,0.69566,-0.092427,0.691624,0.689062,-0.021129,0.634447,0.491311,-0.087163,0.743165,0.693433,-0.024414,0.813066,0.45212,-0.07933,0.785101,0.72597,-0.032849,0.735345,0.805876,-0.069716,0.821468,0.776383,-0.043751,0.760891,0.823155,-0.050269,1,1,0
875,'2026/05/14 11:51:36:816',4,0.751646,0.948246,0,0.740854,0.700546,-0.086589,0.692162,0.689362,-0.019906,0.630974,0.48938,-0.083786,0.74402,0.693267,-0.023006,0.813991,0.45203,-0.072332,0.78555,0.725449,-0.031329,0.736066,0.803766,-0.06679,0.821056,0.775367,-0.042002,0.761985,0.8234,-0.04876,1,1,0
876,'2026/05/14 11:51:36:848',4,0.751959,0.947157,0,0.742293,0.701511,-0.087031,0.692455,0.688779,-0.020214,0.632131,0.49077,-0.08496,0.744698,0.693033,-0.023092,0.813478,0.453058,-0.073752,0.786419,0.724832,-0.031288,0.737353,0.803018,-0.067643,0.821946,0.774549,-0.041866,0.762273,0.824431,-0.04999,1,1,0
877,'2026/05/14 11:51:36:880',4,0.751894,0.948498,0,0.741571,0.700643,-0.087183,0.692286,0.688392,-0.019579,0.633096,0.489477,-0.082563,0.744324,0.692388,-0.022287,0.815451,0.452169,-0.071922,0.78591,0.72487,-0.030334,0.73678,0.804167,-0.067464,0.821408,0.774963,-0.04075,0.761897,0.823781,-0.048411,1,1,0
878,'2026/05/14 11:51:36:912',4,0.752072,0.945837,0,0.737548,0.696223,-0.091239,0.693573,0.689303,-0.021056,0.634527,0.492469,-0.087069,0.745135,0.69316,-0.02424,0.816106,0.45269,-0.078455,0.786725,0.724811,-0.03257,0.736101,0.805704,-0.069137,0.822627,0.77459,-0.043316,0.762007,0.82388,-0.050227,1,1,0
879,'2026/05/14 11:51:36:943',4,0.751616,0.946643,0,0.739355,0.69816,-0.088413,0.693452,0.688627,-0.019826,0.633043,0.493901,-0.08475,0.745127,0.692729,-0.023099,0.816186,0.452373,-0.075067,0.786497,0.724872,-0.031585,0.736683,0.804635,-0.068032,0.821709,0.77493,-0.042434,0.761731,0.824161,-0.048644,1,1,0
880,'2026/05/14 11:51:36:974',4,0.750103,0.948064,0,0.740543,0.699001,-0.086917,0.692838,0.688226,-0.019041,0.634579,0.491234,-0.082393,0.74449,0.692687,-0.022071,0.816122,0.4538,-0.072521,0.785838,0.725143,-0.030375,0.737075,0.805179,-0.067259,0.821078,0.775146,-0.041005,0.762477,0.823797,-0.047207,1,1,0
881,'2026/05/14 11:51:37:026',4,0.750596,0.946305,0,0.738331,0.699164,-0.089137,0.693313,0.689582,-0.019246,0.633625,0.494111,-0.084147,0.744701,0.693728,-0.022444,0.816075,0.452533,-0.074796,0.785793,0.726219,-0.030875,0.734951,0.804711,-0.067399,0.820926,0.776786,-0.041659,0.760864,0.824212,-0.048011,1,1,0
882,'2026/05/14 11:51:37:053',4,0.751827,0.946581,0,0.739986,0.699033,-0.090501,0.693463,0.690365,-0.019999,0.634163,0.494466,-0.084331,0.744816,0.694071,-0.023043,0.815193,0.453797,-0.076296,0.786033,0.725679,-0.031306,0.736425,0.804799,-0.068928,0.821389,0.775115,-0.041902,0.762616,0.823206,-0.048954,1,1,0
883,'2026/05/14 11:51:37:087',4,0.751777,0.947711,0,0.740678,0.699464,-0.088789,0.69362,0.687789,-0.018343,0.634179,0.492178,-0.083046,0.745199,0.692271,-0.021764,0.816757,0.45161,-0.073857,0.786203,0.724975,-0.030521,0.735818,0.805417,-0.067394,0.821253,0.775777,-0.041648,0.761722,0.824483,-0.048396,1,1,0
884,'2026/05/14 11:51:37:123',4,0.750683,0.947517,0,0.741529,0.700534,-0.086921,0.693153,0.687253,-0.018657,0.633866,0.489736,-0.082036,0.744932,0.691426,-0.021891,0.817069,0.452596,-0.07148,0.786141,0.724261,-0.030357,0.73653,0.803521,-0.065928,0.821048,0.775286,-0.041154,0.762301,0.823944,-0.046983,1,1,0
885,'2026/05/14 11:51:37:152',4,0.752744,0.94565,0,0.738311,0.698315,-0.091428,0.693285,0.688133,-0.021097,0.63479,0.493509,-0.086633,0.745193,0.692,-0.024019,0.816127,0.452607,-0.077848,0.786974,0.724077,-0.032174,0.73647,0.805949,-0.06993,0.822886,0.774474,-0.042715,0.761878,0.825639,-0.051101,1,1,0
886,'2026/05/14 11:51:37:183',4,0.752701,0.948979,0,0.740585,0.700304,-0.085768,0.692416,0.68901,-0.018613,0.634489,0.490325,-0.080635,0.744475,0.692482,-0.021108,0.817259,0.452706,-0.069353,0.785792,0.724605,-0.029014,0.737812,0.804689,-0.065197,0.821166,0.77469,-0.039354,0.76269,0.823903,-0.04685,1,1,0
887,'2026/05/14 11:51:37:214',4,0.751053,0.949172,0,0.741668,0.701124,-0.087403,0.693389,0.690909,-0.018604,0.634269,0.493927,-0.080732,0.74533,0.694469,-0.021663,0.815737,0.452976,-0.070876,0.786825,0.726494,-0.030071,0.736356,0.804928,-0.06691,0.821844,0.776471,-0.040782,0.761327,0.824867,-0.047292,1,1,0
888,'2026/05/14 11:51:37:245',4,0.751462,0.947855,0,0.740812,0.700078,-0.085241,0.693911,0.690034,-0.017855,0.634034,0.495934,-0.079729,0.745733,0.693507,-0.021415,0.816151,0.452104,-0.070317,0.786924,0.725858,-0.030198,0.736979,0.803596,-0.066023,0.821592,0.776298,-0.041212,0.761316,0.825121,-0.047279,1,1,0
889,'2026/05/14 11:51:37:279',4,0.751819,0.948402,0,0.739513,0.699534,-0.089113,0.692955,0.689566,-0.019296,0.633527,0.492072,-0.084625,0.744707,0.693592,-0.022542,0.818078,0.451946,-0.074134,0.785994,0.725905,-0.03103,0.735206,0.807523,-0.066281,0.821306,0.776465,-0.041905,0.762606,0.826548,-0.047443,1,1,0
890,'2026/05/14 11:51:37:310',4,0.750732,0.947607,0,0.739544,0.699989,-0.085472,0.693221,0.688818,-0.017502,0.633898,0.493224,-0.079669,0.74493,0.691652,-0.020583,0.816569,0.450684,-0.069482,0.78617,0.724183,-0.028996,0.737131,0.803713,-0.066211,0.820968,0.774607,-0.039678,0.762137,0.824655,-0.04589,1,1,0
891,'2026/05/14 11:51:37:344',4,0.749787,0.946778,0,0.736966,0.699466,-0.088602,0.693014,0.689818,-0.02145,0.635878,0.492651,-0.084747,0.744498,0.692539,-0.023894,0.816594,0.452023,-0.074202,0.785874,0.724882,-0.031512,0.735749,0.804304,-0.069783,0.82108,0.774984,-0.041474,0.761286,0.824745,-0.048576,1,1,0
892,'2026/05/14 11:51:37:384',4,0.750619,0.949167,0,0.737407,0.69611,-0.0861,0.69356,0.690199,-0.018723,0.635654,0.492313,-0.080774,0.744871,0.692756,-0.021503,0.817951,0.451664,-0.071167,0.786102,0.725008,-0.029484,0.735212,0.805842,-0.066725,0.821182,0.774962,-0.03979,0.761353,0.825499,-0.04572,1,1,0
893,'2026/05/14 11:51:37:421',4,0.750499,0.948462,0,0.736804,0.697557,-0.087715,0.693097,0.687965,-0.018965,0.635027,0.492833,-0.082342,0.744775,0.69091,-0.02215,0.817629,0.451056,-0.073695,0.786387,0.723413,-0.030566,0.735291,0.806648,-0.06823,0.82182,0.773982,-0.041305,0.761684,0.824631,-0.046863,1,1,0
894,'2026/05/14 11:51:37:462',4,0.748874,0.949162,0,0.734879,0.694609,-0.084838,0.692175,0.690801,-0.017654,0.634915,0.493719,-0.079115,0.74348,0.692788,-0.020716,0.817348,0.45178,-0.070845,0.785029,0.72452,-0.028915,0.733245,0.805881,-0.067476,0.820674,0.773952,-0.039309,0.761217,0.824969,-0.045254,1,1,0
895,'2026/05/14 11:51:37:494',4,0.747643,0.948519,0,0.737471,0.697074,-0.083664,0.69248,0.691748,-0.019115,0.634501,0.491796,-0.079862,0.74391,0.694176,-0.022149,0.817016,0.450975,-0.071483,0.785346,0.726191,-0.030175,0.73374,0.806308,-0.068012,0.82063,0.775622,-0.040371,0.760186,0.826944,-0.046539,1,1,0
896,'2026/05/14 11:51:37:524',4,0.749913,0.948521,0,0.737013,0.697565,-0.088381,0.693166,0.690194,-0.020968,0.635998,0.492064,-0.084775,0.744348,0.693414,-0.023699,0.817885,0.454941,-0.075452,0.785802,0.725476,-0.031521,0.73568,0.80613,-0.068992,0.821492,0.775292,-0.04167,0.762277,0.825008,-0.047814,1,1,0
897,'2026/05/14 11:51:37:554',4,0.751649,0.94621,0,0.73886,0.699256,-0.090446,0.693786,0.690908,-0.02235,0.635869,0.493645,-0.087122,0.745361,0.695066,-0.025393,0.818478,0.455028,-0.079402,0.786856,0.727033,-0.033429,0.736745,0.805336,-0.07076,0.822451,0.77694,-0.043773,0.762016,0.827438,-0.051787,1,1,0
898,'2026/05/14 11:51:37:587',4,0.75008,0.945738,0,0.7391,0.701466,-0.091204,0.692403,0.689559,-0.02221,0.634595,0.492485,-0.087422,0.744152,0.693772,-0.025236,0.819261,0.455171,-0.076943,0.785883,0.726123,-0.033336,0.734817,0.807401,-0.06861,0.82165,0.776725,-0.043795,0.761691,0.828219,-0.050041,1,1,0
899,'2026/05/14 11:51:37:622',4,0.750437,0.947564,0,0.73705,0.699516,-0.089121,0.692901,0.689106,-0.020366,0.634977,0.491159,-0.085295,0.744221,0.692998,-0.023397,0.819756,0.454287,-0.076201,0.785521,0.725398,-0.031538,0.734033,0.807478,-0.067709,0.820972,0.775959,-0.042038,0.761711,0.827662,-0.047894,1,1,0
900,'2026/05/14 11:51:37:650',4,0.750554,0.947037,0,0.737726,0.700125,-0.086946,0.693142,0.689531,-0.02116,0.63473,0.489764,-0.082817,0.745184,0.69341,-0.023568,0.818453,0.454718,-0.072388,0.786636,0.726037,-0.031126,0.73705,0.806151,-0.06788,0.821966,0.776243,-0.040987,0.761122,0.829071,-0.048959,1,1,0
901,'2026/05/14 11:51:37:680',4,0.749303,0.949116,0,0.738127,0.700345,-0.085644,0.693229,0.690795,-0.019468,0.633778,0.492565,-0.082686,0.744762,0.693284,-0.02262,0.820592,0.453814,-0.072181,0.786113,0.725345,-0.03092,0.736266,0.806608,-0.06708,0.821099,0.775734,-0.04151,0.761834,0.827935,-0.047202,1,1,0
902,'2026/05/14 11:51:37:712',4,0.749609,0.94803,0,0.737534,0.69997,-0.090782,0.692632,0.689024,-0.02114,0.636711,0.489101,-0.085471,0.744409,0.693579,-0.024396,0.819599,0.455714,-0.078228,0.786225,0.726426,-0.032621,0.733768,0.809099,-0.069783,0.822285,0.776989,-0.043157,0.761542,0.826627,-0.04903,1,1,0
903,'2026/05/14 11:51:37:742',4,0.750017,0.949488,0,0.739134,0.700915,-0.087909,0.694237,0.689417,-0.020168,0.635472,0.491741,-0.084659,0.74569,0.693305,-0.023241,0.820814,0.454471,-0.074295,0.78683,0.725671,-0.03153,0.736944,0.8063,-0.068152,0.82176,0.776273,-0.042217,0.762663,0.827486,-0.04902,1,1,0
904,'2026/05/14 11:51:37:774',4,0.751329,0.946207,0,0.740498,0.703131,-0.090119,0.692947,0.690189,-0.023009,0.637429,0.491503,-0.086967,0.745145,0.694233,-0.025304,0.820884,0.458196,-0.076992,0.787263,0.726237,-0.032617,0.736096,0.808334,-0.069177,0.823537,0.775992,-0.042296,0.761998,0.82998,-0.050677,1,1,0
905,'2026/05/14 11:51:37:825',4,0.751953,0.945765,0,0.740779,0.702652,-0.095342,0.693153,0.689976,-0.024419,0.640029,0.493317,-0.089377,0.744842,0.69413,-0.026607,0.823356,0.459976,-0.080961,0.786581,0.72597,-0.033968,0.73636,0.807446,-0.071428,0.82258,0.775962,-0.043823,0.76253,0.829,-0.052635,1,1,0
906,'2026/05/14 11:51:37:853',4,0.749605,0.947707,0,0.738285,0.699616,-0.086566,0.694307,0.69026,-0.022523,0.638683,0.491364,-0.083931,0.746574,0.693688,-0.025014,0.823631,0.456238,-0.073649,0.788214,0.726709,-0.032538,0.736947,0.808926,-0.070344,0.823238,0.777336,-0.042308,0.761659,0.831931,-0.050362,1,1,0
907,'2026/05/14 11:51:37:885',4,0.75235,0.945552,0,0.739801,0.702118,-0.091544,0.693595,0.688106,-0.023862,0.640925,0.49122,-0.087869,0.746056,0.691971,-0.025846,0.823946,0.461289,-0.078458,0.788221,0.724015,-0.032888,0.737396,0.808112,-0.068544,0.824414,0.774478,-0.042481,0.763455,0.828742,-0.051175,1,1,0
908,'2026/05/14 11:51:37:918',4,0.750586,0.947777,0,0.738346,0.700667,-0.087759,0.694055,0.689898,-0.022245,0.638827,0.490382,-0.083634,0.746017,0.693734,-0.024742,0.824221,0.458626,-0.073116,0.787603,0.726784,-0.032278,0.737189,0.808679,-0.067964,0.823227,0.777763,-0.042128,0.763155,0.83031,-0.049527,1,1,0
909,'2026/05/14 11:51:37:951',4,0.75144,0.944611,0,0.738786,0.701541,-0.093046,0.693366,0.689464,-0.024274,0.640072,0.492802,-0.088765,0.745541,0.693935,-0.026598,0.824459,0.461411,-0.080791,0.787709,0.726079,-0.033892,0.737586,0.807099,-0.070903,0.823996,0.776301,-0.043632,0.763916,0.827231,-0.052094,1,1,0
910,'2026/05/14 11:51:37:984',4,0.75331,0.94477,0,0.742652,0.7016,-0.092406,0.694239,0.690482,-0.02372,0.638612,0.492687,-0.088215,0.746117,0.695407,-0.026235,0.825244,0.460075,-0.078995,0.78767,0.727386,-0.033777,0.738252,0.805526,-0.069765,0.823211,0.777327,-0.043696,0.763044,0.82922,-0.05161,1,1,0
911,'2026/05/14 11:51:38:013',4,0.752711,0.945564,0,0.740868,0.703935,-0.092678,0.694305,0.689689,-0.023863,0.63936,0.49349,-0.089113,0.746528,0.693692,-0.025956,0.823475,0.461589,-0.07985,0.788482,0.725239,-0.033181,0.738431,0.80708,-0.070839,0.824312,0.774989,-0.042901,0.764173,0.828352,-0.052074,1,1,0
912,'2026/05/14 11:51:38:045',4,0.751313,0.945416,0,0.738692,0.701989,-0.094711,0.693884,0.690719,-0.024509,0.638309,0.494408,-0.090489,0.745466,0.694389,-0.026847,0.823596,0.460066,-0.081129,0.78723,0.726245,-0.034222,0.73582,0.808165,-0.071754,0.823254,0.77641,-0.044035,0.762865,0.828288,-0.052371,1,1,0
913,'2026/05/14 11:51:38:079',4,0.752749,0.94518,0,0.739908,0.701772,-0.093913,0.69419,0.690499,-0.025409,0.639542,0.490653,-0.090386,0.745523,0.694911,-0.027696,0.824729,0.461058,-0.082574,0.786988,0.726386,-0.034918,0.737009,0.808255,-0.072065,0.822813,0.775779,-0.044619,0.763083,0.828429,-0.053518,1,1,0
914,'2026/05/14 11:51:38:124',4,0.7524,0.945544,0,0.74107,0.700157,-0.089928,0.695458,0.692259,-0.022691,0.637095,0.496456,-0.087796,0.746737,0.695863,-0.02594,0.823006,0.458387,-0.0785,0.787818,0.727223,-0.03413,0.738136,0.806935,-0.070309,0.822801,0.776799,-0.044562,0.762658,0.829499,-0.051248,1,1,0
915,'2026/05/14 11:51:38:151',4,0.752685,0.945759,0,0.739134,0.701341,-0.093801,0.694105,0.691418,-0.024556,0.638368,0.494095,-0.089908,0.74558,0.695347,-0.02686,0.824554,0.460939,-0.0819,0.787212,0.727014,-0.034084,0.736041,0.80872,-0.07184,0.823127,0.77676,-0.043727,0.762932,0.828312,-0.052506,1,1,0
916,'2026/05/14 11:51:38:182',4,0.751392,0.946581,0,0.739273,0.701216,-0.08959,0.695038,0.691015,-0.021398,0.638564,0.495716,-0.085827,0.74618,0.694134,-0.024524,0.824939,0.457771,-0.078401,0.787574,0.725726,-0.032531,0.736417,0.808881,-0.069206,0.823242,0.775867,-0.042848,0.763468,0.828308,-0.04927,1,1,0
917,'2026/05/14 11:51:38:222',4,0.752092,0.946746,0,0.740087,0.70138,-0.086097,0.694603,0.690961,-0.020222,0.637927,0.494907,-0.08249,0.746261,0.693983,-0.023222,0.824742,0.457881,-0.073344,0.787554,0.726096,-0.031195,0.738091,0.807769,-0.066868,0.822821,0.776501,-0.04146,0.762621,0.828465,-0.048135,1,1,0
918,'2026/05/14 11:51:38:259',4,0.753269,0.944018,0,0.741209,0.702848,-0.09328,0.694219,0.690395,-0.023746,0.64044,0.493583,-0.087636,0.745792,0.694384,-0.025872,0.824416,0.461416,-0.078542,0.787254,0.725905,-0.033111,0.73754,0.806138,-0.070437,0.823078,0.775312,-0.042782,0.762983,0.827563,-0.052178,1,1,0
919,'2026/05/14 11:51:38:290',4,0.753178,0.945267,0,0.740897,0.702407,-0.091807,0.695232,0.691034,-0.023608,0.639126,0.495405,-0.088576,0.746637,0.694701,-0.025798,0.823928,0.460928,-0.078802,0.788073,0.726189,-0.033091,0.738178,0.807273,-0.070333,0.823516,0.775718,-0.04285,0.763777,0.82782,-0.05168,1,1,0
920,'2026/05/14 11:51:38:323',4,0.751356,0.945229,0,0.739781,0.703245,-0.090594,0.694475,0.690804,-0.021924,0.638371,0.495108,-0.085805,0.745784,0.694135,-0.024529,0.824246,0.459506,-0.075736,0.787279,0.72574,-0.032154,0.737018,0.807232,-0.067762,0.822922,0.775559,-0.042194,0.76345,0.827006,-0.048881,1,1,0
921,'2026/05/14 11:51:38:354',4,0.754626,0.943477,0,0.739439,0.700955,-0.092713,0.694797,0.690738,-0.024353,0.641683,0.49496,-0.088703,0.746337,0.694716,-0.026331,0.822937,0.463401,-0.080734,0.78774,0.725983,-0.033406,0.738782,0.807184,-0.071144,0.823405,0.775234,-0.04296,0.762833,0.827495,-0.053533,1,1,0
922,'2026/05/14 11:51:38:385',4,0.752171,0.94507,0,0.738762,0.700655,-0.092217,0.69348,0.689684,-0.022866,0.639979,0.493176,-0.087276,0.745471,0.693538,-0.025172,0.823157,0.460984,-0.078841,0.78733,0.725099,-0.032539,0.735772,0.808414,-0.069356,0.823599,0.774635,-0.042393,0.762464,0.827326,-0.05071,1,1,0
923,'2026/05/14 11:51:38:417',4,0.752035,0.944026,0,0.738579,0.700398,-0.089285,0.693994,0.688348,-0.021595,0.641241,0.493861,-0.0838,0.745802,0.692414,-0.024341,0.823151,0.463455,-0.076147,0.787482,0.72409,-0.032025,0.73806,0.805284,-0.067265,0.823689,0.774248,-0.042174,0.761897,0.82482,-0.050252,1,1,0
924,'2026/05/14 11:51:38:449',4,0.754016,0.943984,0,0.739035,0.698603,-0.090956,0.694835,0.688662,-0.022165,0.642032,0.494506,-0.084492,0.74653,0.692872,-0.024251,0.822001,0.463633,-0.077191,0.788065,0.724128,-0.031518,0.740283,0.806272,-0.069622,0.823809,0.772927,-0.041268,0.763364,0.825081,-0.051994,1,1,0
925,'2026/05/14 11:51:38:483',4,0.753675,0.944821,0,0.740796,0.703011,-0.095168,0.694835,0.690837,-0.023775,0.640785,0.495141,-0.088303,0.746481,0.694313,-0.026048,0.823271,0.461791,-0.080121,0.788043,0.725106,-0.033472,0.737734,0.808417,-0.07097,0.823775,0.77408,-0.043391,0.763828,0.828317,-0.052278,1,1,0
926,'2026/05/14 11:51:38:511',4,0.753436,0.943953,0,0.739095,0.700794,-0.091018,0.694808,0.690312,-0.02324,0.642023,0.494376,-0.086692,0.74624,0.694508,-0.025883,0.822562,0.463367,-0.080348,0.78785,0.725622,-0.033468,0.739758,0.806945,-0.070443,0.823779,0.774693,-0.04347,0.763451,0.827484,-0.053262,1,1,0
927,'2026/05/14 11:51:38:542',4,0.752886,0.944376,0,0.740325,0.704174,-0.093903,0.694485,0.69059,-0.024359,0.639547,0.494889,-0.089396,0.746223,0.6939,-0.026387,0.822861,0.461737,-0.079977,0.788051,0.724552,-0.033534,0.737882,0.807174,-0.070401,0.824196,0.773353,-0.043247,0.76382,0.826833,-0.05252,1,1,0
928,'2026/05/14 11:51:38:573',4,0.752076,0.945835,0,0.740067,0.70251,-0.090974,0.694878,0.6907,-0.022147,0.637205,0.494986,-0.086943,0.745945,0.694151,-0.02496,0.823952,0.45906,-0.077172,0.787209,0.725837,-0.032804,0.737261,0.807186,-0.0687,0.822514,0.775771,-0.043062,0.763626,0.827242,-0.049568,1,1,0
929,'2026/05/14 11:51:38:629',4,0.752142,0.943511,0,0.737524,0.701807,-0.092899,0.69352,0.689162,-0.023583,0.641392,0.494152,-0.087332,0.74526,0.693148,-0.025556,0.822538,0.46297,-0.079932,0.787058,0.724208,-0.032588,0.737679,0.80679,-0.070093,0.823218,0.773189,-0.042121,0.763544,0.826466,-0.051875,1,1,0
930,'2026/05/14 11:51:38:668',4,0.751564,0.94522,0,0.73744,0.700695,-0.093234,0.694409,0.691114,-0.024627,0.639176,0.493939,-0.08937,0.745416,0.695005,-0.027201,0.823996,0.460574,-0.081072,0.786687,0.726265,-0.034636,0.735416,0.808342,-0.070601,0.822456,0.775486,-0.044471,0.763081,0.827574,-0.051625,1,1,0
931,'2026/05/14 11:51:38:701',4,0.752229,0.942541,0,0.737365,0.701691,-0.09291,0.693666,0.690063,-0.023871,0.641005,0.494141,-0.088719,0.745138,0.694396,-0.026313,0.823284,0.462634,-0.081359,0.786693,0.72551,-0.033767,0.735601,0.807966,-0.071105,0.822844,0.774341,-0.043639,0.761709,0.827799,-0.053021,1,1,0
932,'2026/05/14 11:51:38:730',4,0.75261,0.941967,0,0.736641,0.695876,-0.090001,0.69472,0.689919,-0.02406,0.642494,0.492011,-0.087694,0.746444,0.694116,-0.026606,0.822723,0.465609,-0.081563,0.787837,0.725278,-0.034028,0.738497,0.80658,-0.07027,0.823088,0.774028,-0.043938,0.76158,0.82562,-0.053249,1,1,0
933,'2026/05/14 11:51:38:761',4,0.7524,0.943285,0,0.736943,0.695609,-0.089532,0.694225,0.689131,-0.023541,0.642533,0.492213,-0.08613,0.746268,0.693216,-0.025891,0.822632,0.464776,-0.081052,0.787903,0.724347,-0.033114,0.73856,0.806287,-0.070325,0.823531,0.77307,-0.04283,0.760782,0.824347,-0.053283,1,1,0
934,'2026/05/14 11:51:38:793',4,0.753846,0.943003,0,0.736502,0.699718,-0.092099,0.693873,0.689816,-0.025226,0.641347,0.492497,-0.089948,0.745412,0.69399,-0.027245,0.822358,0.464193,-0.082278,0.786561,0.724992,-0.034298,0.738713,0.806309,-0.071056,0.822079,0.773406,-0.043906,0.762132,0.827546,-0.054419,1,1,0
935,'2026/05/14 11:51:38:823',4,0.751712,0.942785,0,0.7366,0.698834,-0.091069,0.694066,0.689191,-0.0244,0.641423,0.4912,-0.089038,0.745461,0.69381,-0.026985,0.821219,0.464111,-0.082387,0.786584,0.725187,-0.034517,0.73844,0.805853,-0.071281,0.821916,0.774131,-0.044519,0.761018,0.826723,-0.054282,1,1,0
936,'2026/05/14 11:51:38:855',4,0.751542,0.942576,0,0.735112,0.697486,-0.090199,0.693134,0.689338,-0.024677,0.641972,0.490424,-0.087339,0.745115,0.693478,-0.027177,0.820641,0.465299,-0.082077,0.786877,0.724538,-0.034565,0.738252,0.806926,-0.071892,0.822573,0.773049,-0.044415,0.761091,0.826848,-0.055737,1,1,0
937,'2026/05/14 11:51:38:885',4,0.751148,0.943284,0,0.73607,0.698956,-0.09008,0.693392,0.689647,-0.0245,0.641048,0.491964,-0.08829,0.745057,0.694098,-0.027156,0.820622,0.464581,-0.082531,0.786488,0.725378,-0.034672,0.737462,0.806447,-0.071572,0.821994,0.774182,-0.044659,0.760213,0.826435,-0.05501,1,1,0
938,'2026/05/14 11:51:38:916',4,0.750605,0.943988,0,0.734001,0.699617,-0.091273,0.691695,0.688956,-0.023599,0.639852,0.494788,-0.088045,0.743655,0.693061,-0.026182,0.821315,0.462098,-0.081793,0.785488,0.724281,-0.033679,0.735731,0.806367,-0.071072,0.821682,0.773418,-0.043641,0.760169,0.825936,-0.052886,1,1,0
939,'2026/05/14 11:51:38:947',4,0.749232,0.943374,0,0.734608,0.699291,-0.091043,0.691789,0.688127,-0.024781,0.640093,0.493158,-0.087933,0.743984,0.692555,-0.027153,0.819641,0.464224,-0.080406,0.786096,0.72404,-0.034434,0.73649,0.806536,-0.070316,0.82213,0.773219,-0.044221,0.760269,0.826259,-0.052593,1,1,0
940,'2026/05/14 11:51:38:979',4,0.749531,0.943437,0,0.733423,0.702101,-0.089978,0.692435,0.687735,-0.022839,0.639781,0.493683,-0.085637,0.744623,0.691854,-0.025676,0.820052,0.462497,-0.079512,0.786537,0.723304,-0.033336,0.735786,0.807109,-0.069696,0.822546,0.772849,-0.043443,0.759588,0.824884,-0.051889,1,1,0
941,'2026/05/14 11:51:39:024',4,0.749696,0.942465,0,0.732815,0.699159,-0.087308,0.692441,0.689313,-0.023188,0.639852,0.491845,-0.086744,0.744503,0.693315,-0.026321,0.819179,0.464711,-0.079811,0.786288,0.724488,-0.034248,0.736778,0.806966,-0.068314,0.822268,0.773336,-0.044632,0.758758,0.826761,-0.053208,1,1,0
942,'2026/05/14 11:51:39:058',4,0.749702,0.941349,0,0.732295,0.694669,-0.087097,0.692129,0.689954,-0.024542,0.640127,0.491943,-0.089346,0.74418,0.693921,-0.027749,0.818637,0.465424,-0.085504,0.786028,0.724656,-0.035492,0.734916,0.807926,-0.069623,0.822102,0.772642,-0.045734,0.758667,0.824335,-0.054316,1,1,0
943,'2026/05/14 11:51:39:089',4,0.750591,0.941868,0,0.731026,0.698055,-0.088154,0.691234,0.689406,-0.022788,0.63866,0.492513,-0.085243,0.743438,0.692747,-0.025501,0.817063,0.463712,-0.080856,0.785426,0.723101,-0.032977,0.73509,0.808391,-0.069059,0.82179,0.770958,-0.042914,0.758153,0.82558,-0.052285,1,1,0
944,'2026/05/14 11:51:39:121',4,0.749676,0.939599,0,0.728643,0.69666,-0.089037,0.690382,0.689879,-0.025457,0.637871,0.491418,-0.090417,0.74237,0.693485,-0.028375,0.815187,0.463337,-0.086472,0.784151,0.723768,-0.035875,0.735368,0.80665,-0.071321,0.820526,0.771292,-0.045858,0.757444,0.82484,-0.055629,1,1,0
945,'2026/05/14 11:51:39:151',4,0.749739,0.941938,0,0.730167,0.699012,-0.09009,0.689204,0.6903,-0.024392,0.635436,0.494557,-0.087466,0.741265,0.692865,-0.027092,0.814148,0.46357,-0.081676,0.783119,0.722867,-0.034533,0.733671,0.806621,-0.069796,0.819421,0.770713,-0.044429,0.756961,0.825619,-0.053615,1,1,0
946,'2026/05/14 11:51:39:185',4,0.748875,0.939546,0,0.727266,0.694791,-0.088136,0.68944,0.691196,-0.026611,0.635614,0.492932,-0.092053,0.74127,0.69438,-0.029991,0.813422,0.464429,-0.088995,0.783073,0.724406,-0.03773,0.733212,0.808093,-0.07101,0.8193,0.771282,-0.04796,0.756051,0.82429,-0.055783,1,1,0
947,'2026/05/14 11:51:39:214',4,0.750617,0.942223,0,0.730233,0.698633,-0.088579,0.689012,0.690083,-0.023904,0.634259,0.494822,-0.086596,0.741101,0.692805,-0.026667,0.813192,0.463373,-0.079963,0.783037,0.722912,-0.034205,0.733457,0.806468,-0.06851,0.819418,0.770612,-0.044235,0.756486,0.825054,-0.05282,1,1,0
948,'2026/05/14 11:51:39:247',4,0.749392,0.941349,0,0.728602,0.697775,-0.089641,0.689345,0.69045,-0.024015,0.635232,0.495133,-0.087771,0.741243,0.693428,-0.027084,0.812578,0.462624,-0.083207,0.783225,0.723653,-0.034822,0.734129,0.806464,-0.069963,0.819689,0.771455,-0.045001,0.757014,0.82607,-0.053625,1,1,0
949,'2026/05/14 11:51:39:279',4,0.751207,0.939734,0,0.731009,0.697248,-0.08824,0.688956,0.690632,-0.02372,0.634612,0.495183,-0.086273,0.740724,0.693535,-0.026538,0.813328,0.461888,-0.080645,0.782403,0.723576,-0.034051,0.733522,0.805738,-0.069062,0.818858,0.770853,-0.04394,0.75541,0.826764,-0.053112,1,1,0
950,'2026/05/14 11:51:39:310',4,0.748244,0.942976,0,0.728918,0.701565,-0.088605,0.689385,0.690388,-0.023116,0.636122,0.493817,-0.086738,0.741015,0.694032,-0.026265,0.812805,0.462492,-0.081413,0.782862,0.724325,-0.034178,0.733072,0.80855,-0.069626,0.819281,0.772067,-0.044519,0.756554,0.827019,-0.053436,1,1,0
951,'2026/05/14 11:51:39:341',4,0.749938,0.940812,0,0.728337,0.69825,-0.089859,0.689502,0.690893,-0.025976,0.636287,0.492616,-0.090121,0.741439,0.693734,-0.029103,0.813421,0.462946,-0.085747,0.783205,0.723931,-0.036855,0.734213,0.807801,-0.072618,0.819239,0.771445,-0.047077,0.755538,0.825718,-0.057231,1,1,0
952,'2026/05/14 11:51:39:372',4,0.74831,0.941946,0,0.728248,0.701403,-0.087503,0.689447,0.688969,-0.021634,0.636886,0.49542,-0.082611,0.741266,0.691811,-0.024743,0.812429,0.462646,-0.077858,0.783134,0.721871,-0.032658,0.732764,0.807579,-0.068964,0.819299,0.769483,-0.042952,0.756008,0.826298,-0.052074,1,1,0
953,'2026/05/14 11:51:39:428',4,0.747908,0.940583,0,0.727491,0.701632,-0.088196,0.689141,0.689585,-0.023764,0.63633,0.493061,-0.087054,0.741039,0.692746,-0.027239,0.811615,0.463045,-0.082122,0.782961,0.72316,-0.035381,0.732439,0.808823,-0.070726,0.819105,0.770927,-0.045879,0.75477,0.825425,-0.054612,1,1,0
954,'2026/05/14 11:51:39:469',4,0.749029,0.940566,0,0.728704,0.701349,-0.090873,0.688861,0.691023,-0.025505,0.636468,0.494168,-0.090026,0.740556,0.694369,-0.028364,0.812055,0.463888,-0.084569,0.782274,0.724362,-0.035937,0.732853,0.807758,-0.071364,0.818585,0.771782,-0.046002,0.755583,0.827598,-0.055953,1,1,0
955,'2026/05/14 11:51:39:498',4,0.748228,0.942045,0,0.727967,0.69898,-0.089832,0.688655,0.689861,-0.024379,0.634645,0.495178,-0.088401,0.740474,0.692728,-0.027344,0.812467,0.462164,-0.083985,0.782335,0.722985,-0.034982,0.73315,0.807148,-0.07095,0.818755,0.770656,-0.045073,0.755634,0.827586,-0.054262,1,1,0
956,'2026/05/14 11:51:39:529',4,0.747678,0.941646,0,0.727478,0.700875,-0.091301,0.688828,0.69103,-0.025723,0.635801,0.49386,-0.090276,0.740828,0.694075,-0.028444,0.811718,0.463525,-0.085219,0.782718,0.724112,-0.035872,0.732404,0.808354,-0.07243,0.819154,0.771494,-0.045789,0.755071,0.82783,-0.056604,1,1,0
957,'2026/05/14 11:51:39:563',4,0.749228,0.938397,0,0.726012,0.700697,-0.088229,0.689057,0.690694,-0.027094,0.633736,0.495202,-0.094152,0.740701,0.692918,-0.030744,0.811398,0.462962,-0.087279,0.782558,0.72249,-0.038806,0.730982,0.808975,-0.071732,0.819172,0.769113,-0.049335,0.753204,0.826859,-0.058313,1,1,0
958,'2026/05/14 11:51:39:590',4,0.749212,0.940867,0,0.7285,0.70063,-0.089753,0.688755,0.691527,-0.025037,0.635028,0.493594,-0.08961,0.740626,0.694045,-0.027789,0.811392,0.463288,-0.084042,0.782504,0.723608,-0.035262,0.732669,0.807881,-0.070883,0.819117,0.770498,-0.045214,0.75509,0.82789,-0.055915,1,1,0
959,'2026/05/14 11:51:39:623',4,0.748112,0.939057,0,0.725806,0.703899,-0.088516,0.687718,0.691435,-0.026228,0.631972,0.495431,-0.089852,0.739861,0.694085,-0.02942,0.811084,0.463831,-0.082676,0.782143,0.72387,-0.037035,0.729432,0.810037,-0.071208,0.819162,0.770988,-0.047019,0.752367,0.828321,-0.055897,1,1,0
960,'2026/05/14 11:51:39:653',4,0.749714,0.938688,0,0.727205,0.699552,-0.090713,0.688193,0.691238,-0.027777,0.633748,0.492633,-0.094166,0.740061,0.693459,-0.03056,0.811176,0.464043,-0.088401,0.782107,0.722558,-0.037892,0.731423,0.808211,-0.071714,0.819021,0.768961,-0.047804,0.754648,0.828056,-0.057932,1,1,0
961,'2026/05/14 11:51:39:690',4,0.748293,0.942374,0,0.728836,0.700194,-0.090119,0.689348,0.690727,-0.024383,0.6357,0.495928,-0.087444,0.741072,0.693594,-0.027352,0.812308,0.462826,-0.082699,0.783092,0.723316,-0.034999,0.73321,0.806983,-0.071408,0.819562,0.770887,-0.045046,0.756737,0.825427,-0.054293,1,1,0
962,'2026/05/14 11:51:39:716',4,0.749712,0.938563,0,0.726299,0.700407,-0.089589,0.687453,0.69122,-0.025464,0.633336,0.496753,-0.089812,0.739491,0.693501,-0.02827,0.811293,0.46469,-0.082877,0.782005,0.722749,-0.035687,0.732038,0.807901,-0.069695,0.819309,0.769358,-0.045585,0.75512,0.828421,-0.055064,1,1,0
963,'2026/05/14 11:51:39:746',4,0.750844,0.94164,0,0.729805,0.697924,-0.090035,0.689687,0.68989,-0.025087,0.635346,0.493225,-0.088541,0.741695,0.69281,-0.027762,0.811818,0.462737,-0.082898,0.783702,0.722761,-0.035123,0.733729,0.806199,-0.070994,0.820092,0.770341,-0.044949,0.755941,0.826243,-0.054646,1,1,0
964,'2026/05/14 11:51:39:777',4,0.75214,0.939684,0,0.730911,0.699159,-0.08849,0.689596,0.691599,-0.024694,0.634134,0.497782,-0.087116,0.741037,0.693872,-0.027202,0.812153,0.462453,-0.079761,0.782584,0.723675,-0.034485,0.734071,0.806441,-0.069333,0.818834,0.770806,-0.04418,0.757061,0.827644,-0.05334,1,1,0
965,'2026/05/14 11:51:39:824',4,0.751238,0.941144,0,0.730024,0.699365,-0.09028,0.689947,0.690991,-0.023283,0.634951,0.497308,-0.085396,0.74149,0.693077,-0.026196,0.813086,0.460733,-0.079773,0.783267,0.722892,-0.033948,0.732922,0.808747,-0.069894,0.819477,0.770119,-0.044113,0.756798,0.827956,-0.052325,1,1,0
966,'2026/05/14 11:51:39:856',4,0.750335,0.942958,0,0.729421,0.699064,-0.090894,0.690535,0.690776,-0.023982,0.636505,0.494391,-0.087212,0.742453,0.693271,-0.027148,0.814436,0.461311,-0.083091,0.78467,0.722736,-0.034913,0.733586,0.808192,-0.070988,0.821287,0.769973,-0.045079,0.758018,0.824306,-0.053032,1,1,0
967,'2026/05/14 11:51:39:886',4,0.751636,0.943239,0,0.730523,0.698438,-0.090074,0.69093,0.690817,-0.024426,0.636485,0.495552,-0.087861,0.742688,0.692633,-0.027014,0.8136,0.461676,-0.082537,0.784546,0.721999,-0.03437,0.73499,0.807258,-0.071344,0.820965,0.769122,-0.044176,0.757334,0.827361,-0.054776,1,1,0
968,'2026/05/14 11:51:39:919',4,0.752792,0.941812,0,0.730592,0.697772,-0.091252,0.691211,0.690549,-0.025755,0.635643,0.495062,-0.089816,0.74324,0.692633,-0.028697,0.814342,0.461336,-0.08404,0.785354,0.722572,-0.036333,0.734763,0.808253,-0.072133,0.821789,0.770234,-0.046412,0.758292,0.827404,-0.055099,1,1,0
969,'2026/05/14 11:51:39:954',4,0.751644,0.94188,0,0.730884,0.698969,-0.0884,0.691529,0.689514,-0.022805,0.637198,0.493619,-0.08518,0.743712,0.692192,-0.026377,0.815285,0.462108,-0.081187,0.786076,0.72217,-0.034597,0.734737,0.808355,-0.069959,0.822622,0.769796,-0.045216,0.758235,0.823166,-0.052815,1,1,0
970,'2026/05/14 11:51:39:982',4,0.751733,0.941501,0,0.731587,0.695576,-0.090381,0.691208,0.688769,-0.025417,0.636798,0.494299,-0.089162,0.743684,0.691323,-0.028299,0.814697,0.461351,-0.084647,0.786094,0.72146,-0.03584,0.736639,0.806372,-0.072575,0.822444,0.769306,-0.045816,0.759035,0.826494,-0.055322,1,1,0
971,'2026/05/14 11:51:40:015',4,0.751755,0.94187,0,0.732009,0.696374,-0.09168,0.691321,0.689601,-0.025118,0.63797,0.492266,-0.088584,0.743552,0.692221,-0.027635,0.815447,0.460032,-0.084054,0.786005,0.721914,-0.03487,0.735298,0.806716,-0.072335,0.82264,0.769194,-0.044574,0.758694,0.826631,-0.054658,1,1,0
972,'2026/05/14 11:51:40:049',4,0.752143,0.941155,0,0.731167,0.697856,-0.090822,0.692342,0.691234,-0.024092,0.636831,0.496511,-0.087294,0.743589,0.693381,-0.027136,0.815641,0.459107,-0.08117,0.785367,0.722721,-0.034916,0.733289,0.808194,-0.070353,0.821656,0.769804,-0.045068,0.758028,0.825925,-0.051764,1,1,0
973,'2026/05/14 11:51:40:084',4,0.751958,0.940967,0,0.730855,0.698156,-0.089561,0.691542,0.689453,-0.024044,0.638338,0.494922,-0.086564,0.744195,0.691375,-0.02717,0.815415,0.460796,-0.081635,0.786815,0.720968,-0.034995,0.735892,0.807327,-0.071024,0.82352,0.768488,-0.045256,0.759436,0.824722,-0.054361,1,1,0
974,'2026/05/14 11:51:40:123',4,0.752095,0.940301,0,0.730477,0.699136,-0.089371,0.691832,0.689471,-0.025475,0.638449,0.491886,-0.089439,0.743926,0.692037,-0.028304,0.814251,0.461665,-0.083874,0.786061,0.721719,-0.035799,0.735746,0.807245,-0.071947,0.822611,0.768762,-0.04577,0.757391,0.825484,-0.05569,1,1,0
975,'2026/05/14 11:51:40:152',4,0.75257,0.940547,0,0.730861,0.697892,-0.092078,0.691755,0.691,-0.028967,0.637473,0.490761,-0.094002,0.744048,0.693344,-0.031779,0.814399,0.462924,-0.088301,0.78629,0.72295,-0.03909,0.736375,0.808684,-0.073475,0.822661,0.769622,-0.048985,0.758797,0.824204,-0.057249,1,1,0
976,'2026/05/14 11:51:40:182',4,0.752831,0.939869,0,0.731673,0.696168,-0.08954,0.692047,0.689001,-0.026335,0.63742,0.49127,-0.089827,0.744184,0.691456,-0.029124,0.814846,0.46079,-0.084324,0.786032,0.721366,-0.036606,0.736277,0.806234,-0.072111,0.822135,0.768526,-0.046628,0.757905,0.826092,-0.056839,1,1,0
977,'2026/05/14 11:51:40:224',4,0.752725,0.941454,0,0.730965,0.69708,-0.088556,0.692651,0.689924,-0.025128,0.638151,0.492812,-0.089083,0.744938,0.692204,-0.028592,0.815357,0.461885,-0.085304,0.787218,0.721853,-0.036555,0.735843,0.808732,-0.072231,0.823901,0.769137,-0.046916,0.758853,0.825716,-0.055778,1,1,0
978,'2026/05/14 11:51:40:261',4,0.754465,0.939828,0,0.732553,0.697975,-0.08966,0.691288,0.689477,-0.026555,0.637517,0.492425,-0.090293,0.743268,0.691447,-0.028969,0.814922,0.460339,-0.083754,0.785078,0.720557,-0.036101,0.735923,0.806145,-0.071341,0.821242,0.767002,-0.045779,0.757852,0.826868,-0.055874,1,1,0
979,'2026/05/14 11:51:40:292',4,0.753568,0.941771,0,0.732205,0.698517,-0.092904,0.690531,0.68982,-0.026336,0.636999,0.493225,-0.089307,0.742575,0.691912,-0.028647,0.816094,0.460533,-0.083751,0.784932,0.720975,-0.035563,0.7329,0.807227,-0.071503,0.821934,0.767831,-0.044969,0.757493,0.826948,-0.053835,1,1,0
980,'2026/05/14 11:51:40:322',4,0.752182,0.943153,0,0.730111,0.697656,-0.0927,0.69066,0.690215,-0.025219,0.635202,0.496152,-0.08921,0.742608,0.692319,-0.028017,0.815817,0.45902,-0.084484,0.78518,0.72162,-0.035376,0.731974,0.809628,-0.072658,0.822234,0.769067,-0.045111,0.758012,0.826776,-0.052701,1,1,0
981,'2026/05/14 11:51:40:353',4,0.751221,0.941633,0,0.730083,0.696603,-0.092317,0.690179,0.689636,-0.026824,0.635608,0.494305,-0.09004,0.742592,0.691189,-0.029522,0.814074,0.460397,-0.085603,0.785416,0.720193,-0.036714,0.733382,0.808286,-0.0731,0.822345,0.767256,-0.046413,0.757317,0.824867,-0.055002,1,1,0
982,'2026/05/14 11:51:40:384',4,0.750868,0.944536,0,0.728968,0.698011,-0.092513,0.688693,0.689001,-0.023411,0.631946,0.49677,-0.087305,0.741149,0.691096,-0.026495,0.81313,0.457408,-0.081345,0.78407,0.72091,-0.034229,0.73,0.809138,-0.070285,0.821512,0.768969,-0.044379,0.75456,0.826269,-0.051708,1,1,0
983,'2026/05/14 11:51:40:415',4,0.753334,0.94123,0,0.729553,0.698943,-0.091109,0.688738,0.690836,-0.026493,0.634159,0.493577,-0.089448,0.740952,0.692138,-0.028611,0.811361,0.460559,-0.083337,0.783519,0.720655,-0.035344,0.731359,0.807857,-0.071154,0.82088,0.766998,-0.044607,0.753525,0.827401,-0.054933,1,1,0
984,'2026/05/14 11:51:40:448',4,0.750768,0.944499,0,0.729069,0.696898,-0.092492,0.689094,0.689484,-0.023331,0.631524,0.49699,-0.088184,0.741001,0.691524,-0.026264,0.813343,0.457671,-0.082154,0.78388,0.720958,-0.033925,0.730411,0.808277,-0.071031,0.821383,0.768828,-0.043988,0.756267,0.825984,-0.050332,1,1,0
985,'2026/05/14 11:51:40:479',4,0.752251,0.944179,0,0.730852,0.699436,-0.09147,0.690544,0.690449,-0.02408,0.632542,0.499311,-0.088771,0.742417,0.692277,-0.02678,0.813556,0.458275,-0.081635,0.784734,0.721386,-0.034275,0.731723,0.807034,-0.071431,0.821023,0.768647,-0.044204,0.757381,0.826833,-0.052092,1,1,0
986,'2026/05/14 11:51:40:511',4,0.751327,0.94361,0,0.72854,0.698832,-0.093082,0.689728,0.690249,-0.025979,0.633792,0.496189,-0.089626,0.741864,0.691644,-0.02852,0.813407,0.45908,-0.084704,0.784534,0.720314,-0.035635,0.731737,0.808558,-0.073373,0.821704,0.767177,-0.045205,0.756627,0.827344,-0.054118,1,1,0
987,'2026/05/14 11:51:40:543',4,0.751365,0.943983,0,0.729527,0.699164,-0.094391,0.689817,0.69109,-0.026127,0.632927,0.497049,-0.091006,0.741814,0.692716,-0.028786,0.814021,0.45962,-0.085891,0.784438,0.721516,-0.036058,0.730933,0.810285,-0.0736,0.82162,0.768526,-0.045749,0.756473,0.827651,-0.053857,1,1,0
988,'2026/05/14 11:51:40:574',4,0.750936,0.945389,0,0.727295,0.698556,-0.093478,0.690173,0.69053,-0.02526,0.631605,0.498497,-0.090744,0.741826,0.692014,-0.028162,0.813594,0.458333,-0.085285,0.784439,0.720744,-0.035619,0.72923,0.809821,-0.07266,0.821525,0.767966,-0.04554,0.756542,0.825831,-0.052025,1,1,0
989,'2026/05/14 11:51:40:627',4,0.750675,0.946439,0,0.727911,0.698323,-0.093045,0.689429,0.691901,-0.023529,0.629991,0.498327,-0.088294,0.741056,0.693405,-0.026524,0.812611,0.456947,-0.081777,0.783573,0.722819,-0.034228,0.730607,0.810313,-0.07171,0.820516,0.770358,-0.044245,0.756994,0.826321,-0.049882,1,1,0
990,'2026/05/14 11:51:40:672',4,0.750636,0.944797,0,0.727649,0.698864,-0.095674,0.687708,0.690488,-0.026046,0.631363,0.496552,-0.090208,0.739949,0.691811,-0.028486,0.812281,0.458367,-0.084492,0.783053,0.720587,-0.03559,0.728393,0.810659,-0.073228,0.82059,0.767927,-0.045219,0.754691,0.825831,-0.052742,1,1,0
991,'2026/05/14 11:51:40:698',4,0.751812,0.943208,0,0.727036,0.69794,-0.093286,0.68761,0.691021,-0.02671,0.632027,0.495677,-0.090044,0.739962,0.691934,-0.029097,0.811225,0.460191,-0.084645,0.782584,0.720317,-0.036055,0.729936,0.809246,-0.073126,0.819587,0.766737,-0.045538,0.752736,0.826917,-0.055244,1,1,0
992,'2026/05/14 11:51:40:730',4,0.750538,0.942774,0,0.725944,0.697027,-0.091889,0.688111,0.69022,-0.025702,0.63034,0.497331,-0.089633,0.740197,0.691202,-0.0289,0.808586,0.459675,-0.084724,0.782529,0.720005,-0.036732,0.731156,0.809042,-0.07317,0.818889,0.766838,-0.047031,0.75438,0.825977,-0.055147,1,1,0
993,'2026/05/14 11:51:40:760',4,0.751627,0.941596,0,0.725518,0.696859,-0.089229,0.687834,0.6911,-0.025414,0.630636,0.49734,-0.088422,0.739687,0.691749,-0.02811,0.808596,0.459431,-0.082928,0.781891,0.720277,-0.03544,0.729502,0.809313,-0.072067,0.818268,0.766595,-0.045213,0.752482,0.827577,-0.054942,1,1,0
994,'2026/05/14 11:51:40:793',4,0.751499,0.941447,0,0.726036,0.696333,-0.091445,0.688009,0.69145,-0.027149,0.629801,0.494489,-0.090276,0.740029,0.692083,-0.030283,0.807046,0.459761,-0.085884,0.782025,0.720628,-0.037999,0.732052,0.809023,-0.074136,0.818018,0.766793,-0.048282,0.753715,0.825869,-0.057676,1,1,0
995,'2026/05/14 11:51:40:822',4,0.751347,0.94091,0,0.727053,0.694802,-0.089664,0.688155,0.691336,-0.026319,0.629735,0.494133,-0.089117,0.740408,0.692257,-0.029286,0.807452,0.460442,-0.084964,0.782522,0.720986,-0.036847,0.731275,0.810081,-0.073415,0.818635,0.767356,-0.046943,0.752281,0.826203,-0.057382,1,1,0
996,'2026/05/14 11:51:40:856',4,0.750846,0.943536,0,0.726062,0.697539,-0.092556,0.687689,0.692031,-0.024829,0.629742,0.499067,-0.087926,0.739496,0.693079,-0.027544,0.80926,0.458928,-0.082614,0.782003,0.721488,-0.03493,0.72804,0.810239,-0.072227,0.818896,0.768004,-0.044757,0.751595,0.827435,-0.053053,1,1,0
997,'2026/05/14 11:51:40:884',4,0.751919,0.942292,0,0.72588,0.698401,-0.092994,0.687915,0.691912,-0.026425,0.629658,0.497467,-0.090366,0.739944,0.692455,-0.028981,0.807119,0.45907,-0.08489,0.782329,0.72087,-0.036261,0.72974,0.81051,-0.073976,0.81886,0.767434,-0.046021,0.752407,0.828226,-0.056124,1,1,0
998,'2026/05/14 11:51:40:911',4,0.751661,0.941889,0,0.724568,0.695024,-0.09228,0.68851,0.691932,-0.026709,0.630152,0.496523,-0.090972,0.740552,0.692586,-0.029513,0.808068,0.45995,-0.08591,0.78288,0.721155,-0.036991,0.73111,0.809957,-0.073651,0.819167,0.767511,-0.047035,0.754323,0.826285,-0.055924,1,1,0
999,'2026/05/14 11:51:40:946',4,0.750985,0.944071,0,0.72559,0.698944,-0.092933,0.688324,0.692104,-0.024719,0.630094,0.501035,-0.087959,0.740249,0.692372,-0.027388,0.809262,0.458925,-0.082255,0.782574,0.720591,-0.0348,0.728509,0.809964,-0.072366,0.819219,0.767251,-0.044688,0.752356,0.826833,-0.053584,1,1,0
1000,'2026/05/14 11:51:40:978',4,0.751267,0.942792,0,0.725677,0.698022,-0.09276,0.688303,0.691938,-0.025353,0.629354,0.500884,-0.089511,0.740183,0.692151,-0.028227,0.808922,0.45965,-0.084138,0.782727,0.720258,-0.03575,0.728876,0.810255,-0.072654,0.819381,0.766687,-0.045766,0.753254,0.827187,-0.053637,1,1,0
1001,'2026/05/14 11:51:41:024',4,0.753217,0.941652,0,0.726176,0.698919,-0.091791,0.687951,0.692591,-0.02674,0.628793,0.49705,-0.09024,0.739871,0.692465,-0.029523,0.807248,0.459155,-0.085082,0.782163,0.720536,-0.036886,0.729708,0.810251,-0.073309,0.818715,0.766489,-0.046741,0.752792,0.828164,-0.056282,1,1,0
1002,'2026/05/14 11:51:41:059',4,0.752123,0.942288,0,0.7259,0.697224,-0.091068,0.687658,0.692231,-0.025852,0.629368,0.497375,-0.089011,0.739681,0.692482,-0.02865,0.806937,0.459961,-0.084451,0.781937,0.720605,-0.036056,0.729848,0.810095,-0.073038,0.818588,0.766634,-0.045961,0.751495,0.82804,-0.056259,1,1,0
1003,'2026/05/14 11:51:41:090',4,0.752808,0.942587,0,0.726978,0.69848,-0.090194,0.688093,0.691952,-0.024225,0.629347,0.499247,-0.086292,0.740048,0.691854,-0.026955,0.807327,0.458611,-0.081374,0.782489,0.720237,-0.034355,0.730289,0.809602,-0.071428,0.819056,0.766704,-0.044204,0.75231,0.828086,-0.0535,1,1,0
1004,'2026/05/14 11:51:41:118',4,0.75101,0.943393,0,0.725216,0.69606,-0.091488,0.688403,0.691318,-0.02414,0.62985,0.500183,-0.087602,0.740352,0.691874,-0.027314,0.808284,0.458769,-0.083813,0.782895,0.720313,-0.035092,0.729106,0.810268,-0.072994,0.819487,0.766778,-0.045266,0.753859,0.825275,-0.053178,1,1,0
1005,'2026/05/14 11:51:41:153',4,0.754487,0.941539,0,0.727239,0.700221,-0.090768,0.687745,0.692971,-0.026059,0.629265,0.495393,-0.088937,0.739637,0.692971,-0.028789,0.807265,0.459864,-0.083528,0.781615,0.721042,-0.036188,0.729612,0.810203,-0.073232,0.818251,0.766539,-0.04604,0.750604,0.829806,-0.05711,1,1,0
1006,'2026/05/14 11:51:41:183',4,0.75056,0.942814,0,0.725415,0.695304,-0.091317,0.687028,0.690092,-0.024792,0.630372,0.497265,-0.086542,0.739478,0.691009,-0.027543,0.80815,0.459971,-0.082423,0.782141,0.719916,-0.034923,0.730631,0.808301,-0.071931,0.818807,0.76686,-0.044783,0.75367,0.825699,-0.053627,1,1,0
1007,'2026/05/14 11:51:41:215',4,0.75127,0.941008,0,0.725287,0.695622,-0.091096,0.687902,0.691068,-0.026693,0.630596,0.49351,-0.089903,0.740178,0.691628,-0.029694,0.807729,0.460841,-0.08554,0.782637,0.72029,-0.037275,0.731727,0.810141,-0.074157,0.819037,0.766741,-0.047395,0.752829,0.826616,-0.057488,1,1,0
1008,'2026/05/14 11:51:41:246',4,0.753552,0.941798,0,0.726738,0.697398,-0.091489,0.687914,0.692184,-0.026197,0.62978,0.497285,-0.088582,0.739789,0.692356,-0.02881,0.806625,0.459443,-0.083616,0.782054,0.720548,-0.036071,0.729648,0.809853,-0.073038,0.818582,0.76654,-0.045798,0.751596,0.828068,-0.055963,1,1,0
1009,'2026/05/14 11:51:41:279',4,0.75192,0.942658,0,0.726896,0.695321,-0.088289,0.688561,0.691047,-0.025972,0.631365,0.493155,-0.087295,0.741357,0.691233,-0.029382,0.808052,0.461084,-0.083445,0.783782,0.720085,-0.037299,0.732726,0.808038,-0.072888,0.819788,0.766763,-0.047745,0.753472,0.824315,-0.057702,1,1,0
1010,'2026/05/14 11:51:41:313',4,0.754629,0.939948,0,0.727054,0.69752,-0.088519,0.688244,0.692183,-0.02582,0.629962,0.494794,-0.087737,0.739628,0.69243,-0.029092,0.806917,0.459374,-0.08413,0.781235,0.720443,-0.036846,0.731491,0.809392,-0.073155,0.817676,0.76567,-0.046993,0.751116,0.829537,-0.058196,1,1,0
1011,'2026/05/14 11:51:41:342',4,0.751466,0.942092,0,0.726723,0.696397,-0.091159,0.688745,0.690776,-0.026092,0.631085,0.495452,-0.088958,0.741216,0.691958,-0.028988,0.808325,0.460623,-0.084991,0.78372,0.720914,-0.036441,0.732053,0.810419,-0.073895,0.820188,0.767621,-0.046407,0.75307,0.826801,-0.05671,1,1,0
1012,'2026/05/14 11:51:41:375',4,0.752397,0.94375,0,0.727221,0.698358,-0.092748,0.688161,0.691261,-0.025372,0.63152,0.498389,-0.088397,0.740231,0.691955,-0.028102,0.810477,0.45924,-0.083941,0.782771,0.720193,-0.035439,0.731063,0.809282,-0.072963,0.819479,0.76651,-0.045231,0.754236,0.826248,-0.053498,1,1,0
1013,'2026/05/14 11:51:41:425',4,0.751121,0.942929,0,0.727455,0.697056,-0.093122,0.68814,0.691014,-0.026433,0.631818,0.495849,-0.08985,0.740338,0.691504,-0.028863,0.809816,0.460474,-0.085126,0.783216,0.719448,-0.035884,0.729162,0.811976,-0.07308,0.820247,0.76554,-0.045464,0.752774,0.827327,-0.053996,1,1,0
1014,'2026/05/14 11:51:41:454',4,0.751332,0.941606,0,0.726623,0.695945,-0.08978,0.689113,0.69022,-0.024872,0.631425,0.496099,-0.086935,0.741579,0.690892,-0.028001,0.808808,0.460416,-0.083337,0.78403,0.719683,-0.035727,0.732401,0.809797,-0.071979,0.820347,0.766297,-0.04595,0.754771,0.826722,-0.055081,1,1,0
1015,'2026/05/14 11:51:41:486',4,0.752225,0.942091,0,0.725883,0.695343,-0.090011,0.690589,0.691391,-0.025309,0.630753,0.498891,-0.089144,0.741975,0.691329,-0.028292,0.80825,0.458488,-0.082862,0.783973,0.719838,-0.036019,0.73227,0.808594,-0.072382,0.819758,0.766396,-0.046286,0.754485,0.826454,-0.054553,1,1,0
1016,'2026/05/14 11:51:41:518',4,0.752022,0.941027,0,0.726052,0.694032,-0.089801,0.689594,0.691521,-0.02669,0.631294,0.495381,-0.090522,0.741546,0.691816,-0.029858,0.809143,0.459788,-0.085819,0.783712,0.720742,-0.037635,0.732765,0.810453,-0.073819,0.819815,0.767532,-0.04796,0.75436,0.827792,-0.058002,1,1,0
1017,'2026/05/14 11:51:41:550',4,0.751448,0.943297,0,0.725965,0.695511,-0.092702,0.689315,0.691185,-0.026449,0.630906,0.497543,-0.091355,0.741539,0.691705,-0.029213,0.810697,0.459732,-0.086598,0.784168,0.720167,-0.036609,0.730752,0.810267,-0.074521,0.820602,0.767061,-0.046531,0.754608,0.826236,-0.055588,1,1,0
1018,'2026/05/14 11:51:41:585',4,0.752299,0.944367,0,0.728215,0.699862,-0.09292,0.688718,0.691223,-0.026819,0.630279,0.497519,-0.0915,0.740906,0.691767,-0.029319,0.811051,0.459082,-0.08518,0.783776,0.719653,-0.036351,0.730082,0.80957,-0.072236,0.820835,0.765715,-0.045941,0.755548,0.827025,-0.053082,1,1,0
1019,'2026/05/14 11:51:41:622',4,0.753723,0.942512,0,0.727263,0.696669,-0.091443,0.689288,0.69187,-0.026267,0.631475,0.496622,-0.088871,0.741642,0.691934,-0.028803,0.809382,0.459222,-0.084534,0.784268,0.720187,-0.035923,0.732289,0.810118,-0.073654,0.820999,0.766228,-0.045538,0.754047,0.828545,-0.056013,1,1,0
1020,'2026/05/14 11:51:41:653',4,0.751798,0.940268,0,0.726576,0.695415,-0.090464,0.690116,0.691395,-0.027355,0.631984,0.495775,-0.090772,0.741767,0.691971,-0.030814,0.808676,0.460692,-0.086208,0.784101,0.720449,-0.038651,0.73232,0.81091,-0.073589,0.820464,0.766746,-0.048987,0.754384,0.824732,-0.056458,1,1,0
1021,'2026/05/14 11:51:41:686',4,0.752459,0.942859,0,0.727513,0.697865,-0.092181,0.689065,0.69133,-0.025079,0.630752,0.497865,-0.088543,0.741042,0.691983,-0.027823,0.809985,0.459069,-0.082982,0.783461,0.720214,-0.035203,0.730207,0.810299,-0.071737,0.820373,0.766646,-0.045036,0.753091,0.828662,-0.053369,1,1,0
1022,'2026/05/14 11:51:53:462',5,0.794167,0.908726,-0.000001,0.690993,0.682834,-0.054152,0.731825,0.72413,0.015809,0.717801,0.799581,-0.036465,0.767657,0.713955,0.010391,0.751196,0.810027,-0.050905,0.809682,0.70478,-0.00051,0.786717,0.784663,-0.035523,0.853897,0.699768,-0.012798,0.839768,0.509148,-0.014332,1,0,1
1023,'2026/05/14 11:51:53:492',5,0.794346,0.911093,-0.000001,0.690875,0.683359,-0.05306,0.731967,0.721794,0.018448,0.717671,0.797873,-0.03544,0.767581,0.712786,0.011989,0.750561,0.809777,-0.05021,0.809456,0.704724,0.000056,0.786091,0.785676,-0.034958,0.853445,0.700897,-0.013195,0.838283,0.51009,-0.012891,1,0,1
1024,'2026/05/14 11:51:53:522',5,0.793742,0.910577,-0.000001,0.690702,0.683267,-0.054016,0.731183,0.724167,0.01719,0.716904,0.798967,-0.035022,0.767028,0.714386,0.011171,0.750851,0.810553,-0.050025,0.80914,0.705491,-0.000354,0.786181,0.7842,-0.034774,0.853338,0.700687,-0.01327,0.839338,0.510303,-0.013812,1,0,1
1025,'2026/05/14 11:51:53:553',5,0.793546,0.912633,-0.000001,0.689985,0.68376,-0.055497,0.73147,0.722401,0.017364,0.715804,0.799293,-0.036596,0.767529,0.713501,0.01149,0.750006,0.811212,-0.051156,0.809679,0.705417,-0.00004,0.785959,0.785382,-0.035398,0.853759,0.701279,-0.012954,0.83979,0.51091,-0.013253,1,0,1
1026,'2026/05/14 11:51:53:585',5,0.793978,0.911229,-0.000001,0.68918,0.684484,-0.055105,0.730746,0.724212,0.015391,0.716391,0.801379,-0.03705,0.767016,0.714706,0.009905,0.74914,0.812122,-0.051841,0.809354,0.706183,-0.001064,0.784888,0.785443,-0.036286,0.853924,0.701762,-0.013387,0.839124,0.508844,-0.015212,1,0,1
1027,'2026/05/14 11:51:53:615',5,0.793008,0.912753,-0.000001,0.689866,0.683777,-0.057645,0.729527,0.722011,0.018432,0.714925,0.800757,-0.035678,0.766374,0.713874,0.012368,0.748163,0.810744,-0.051127,0.808532,0.706311,0.000507,0.783343,0.787976,-0.035938,0.852597,0.702716,-0.01274,0.836377,0.510234,-0.012269,1,0,1
1028,'2026/05/14 11:51:53:646',5,0.793366,0.914324,-0.000001,0.68983,0.68421,-0.055968,0.731691,0.720906,0.019031,0.715336,0.800021,-0.035068,0.767551,0.713006,0.012583,0.747786,0.810865,-0.050285,0.808861,0.705871,0.000437,0.782408,0.789399,-0.035946,0.85212,0.702588,-0.012992,0.83522,0.50957,-0.012369,1,0,1
1029,'2026/05/14 11:51:53:678',5,0.79482,0.916205,-0.000001,0.689277,0.685446,-0.049447,0.731814,0.723288,0.023475,0.714709,0.799326,-0.027735,0.767216,0.715102,0.016042,0.746531,0.811051,-0.046022,0.808529,0.707257,0.003252,0.781303,0.792746,-0.031936,0.852095,0.703336,-0.010617,0.834554,0.510638,-0.007126,1,0,1
1030,'2026/05/14 11:51:53:710',5,0.793839,0.916408,-0.000001,0.688941,0.684319,-0.053345,0.732585,0.72264,0.020849,0.713637,0.799459,-0.03232,0.767447,0.714686,0.013588,0.745195,0.811264,-0.048705,0.808068,0.706935,0.000886,0.779116,0.79082,-0.033493,0.850747,0.703553,-0.013018,0.834253,0.511293,-0.010268,1,0,1
1031,'2026/05/14 11:51:53:745',5,0.793153,0.915601,-0.000001,0.688337,0.685102,-0.056333,0.73157,0.721117,0.01919,0.713881,0.798802,-0.034934,0.767008,0.713779,0.012234,0.745316,0.8115,-0.051162,0.808144,0.706768,-0.000306,0.780744,0.792234,-0.035916,0.851155,0.703796,-0.014097,0.834086,0.509937,-0.012017,1,0,1
1032,'2026/05/14 11:51:53:773',5,0.792541,0.914594,-0.000001,0.687499,0.684168,-0.056535,0.72999,0.720195,0.018873,0.71351,0.801222,-0.03566,0.766078,0.712565,0.012389,0.745346,0.811847,-0.050672,0.80755,0.705645,0.00012,0.780951,0.790093,-0.035958,0.850924,0.702785,-0.013471,0.833923,0.509318,-0.012905,1,0,1
1033,'2026/05/14 11:51:53:824',5,0.791801,0.915615,-0.000001,0.687864,0.685614,-0.058082,0.729105,0.720156,0.015971,0.712814,0.800222,-0.039595,0.765186,0.712556,0.00984,0.744912,0.811951,-0.053195,0.806816,0.705642,-0.00209,0.780887,0.790391,-0.037694,0.85032,0.702561,-0.015365,0.837263,0.507688,-0.015726,1,0,1
1034,'2026/05/14 11:51:53:855',5,0.793287,0.916423,-0.000001,0.68846,0.684225,-0.057414,0.731395,0.719489,0.016929,0.712479,0.800658,-0.038859,0.767186,0.711719,0.010409,0.744544,0.812716,-0.052615,0.808465,0.704986,-0.001832,0.780801,0.791215,-0.037519,0.851439,0.702228,-0.015375,0.836626,0.507296,-0.014805,1,0,1
1035,'2026/05/14 11:51:53:888',5,0.793849,0.917995,-0.000001,0.688739,0.684936,-0.052517,0.732195,0.720687,0.020084,0.713288,0.79905,-0.034056,0.767738,0.713255,0.012295,0.745304,0.811481,-0.050121,0.808983,0.70655,-0.000912,0.781567,0.792303,-0.034933,0.85227,0.704145,-0.015311,0.836653,0.509333,-0.013124,1,0,1
1036,'2026/05/14 11:51:53:933',5,0.793469,0.913955,-0.000001,0.689176,0.686493,-0.055345,0.730583,0.718582,0.016412,0.713907,0.79838,-0.037031,0.766746,0.711319,0.009763,0.745352,0.810655,-0.05126,0.808539,0.705176,-0.002385,0.78181,0.790273,-0.035991,0.85217,0.703524,-0.01586,0.838628,0.508485,-0.016056,1,0,1
1037,'2026/05/14 11:51:53:962',5,0.793602,0.914144,-0.000001,0.688504,0.68526,-0.056256,0.732729,0.720409,0.017166,0.715008,0.799666,-0.037343,0.768184,0.712736,0.010322,0.745876,0.810781,-0.051829,0.809163,0.706196,-0.002091,0.782403,0.790063,-0.037136,0.85196,0.703877,-0.015789,0.837701,0.510333,-0.015775,1,0,1
1038,'2026/05/14 11:51:53:990',5,0.793099,0.915922,-0.000001,0.688671,0.684745,-0.053433,0.73261,0.720845,0.017837,0.713012,0.799625,-0.036357,0.767688,0.712986,0.010562,0.74505,0.81211,-0.051478,0.808629,0.706145,-0.002175,0.782077,0.791371,-0.037009,0.851511,0.703358,-0.016112,0.838192,0.508406,-0.015479,1,0,1
1039,'2026/05/14 11:51:54:020',5,0.793381,0.915535,-0.000001,0.688656,0.685602,-0.054172,0.732126,0.721357,0.017095,0.713775,0.799346,-0.037723,0.76741,0.713225,0.010517,0.744107,0.811189,-0.051185,0.808456,0.706164,-0.001658,0.780276,0.791142,-0.036384,0.851416,0.703269,-0.015108,0.838642,0.507861,-0.016153,1,0,1
1040,'2026/05/14 11:51:54:052',5,0.792109,0.914692,-0.000001,0.687181,0.683356,-0.058565,0.731375,0.721388,0.016263,0.713279,0.801465,-0.039623,0.766913,0.713351,0.010615,0.744912,0.811368,-0.052171,0.807918,0.706243,-0.000891,0.779626,0.789152,-0.037168,0.850854,0.703061,-0.013774,0.837157,0.509325,-0.014156,1,0,1
1041,'2026/05/14 11:51:54:083',5,0.792317,0.915381,-0.000001,0.686682,0.685187,-0.054007,0.731208,0.721935,0.018139,0.712791,0.79841,-0.035781,0.766212,0.714083,0.011193,0.744168,0.810307,-0.050871,0.807084,0.707119,-0.001206,0.780007,0.790653,-0.036605,0.850063,0.703986,-0.014773,0.836797,0.509654,-0.013747,1,0,1
1042,'2026/05/14 11:51:54:114',5,0.792514,0.916149,-0.000001,0.687231,0.685322,-0.054482,0.731452,0.720617,0.017177,0.712183,0.79963,-0.037293,0.766255,0.712967,0.010166,0.743684,0.812023,-0.051579,0.807105,0.706123,-0.002265,0.779158,0.791669,-0.036652,0.849923,0.703179,-0.015921,0.835373,0.509349,-0.014361,1,0,1
1043,'2026/05/14 11:51:54:146',5,0.792684,0.915626,-0.000001,0.687463,0.684054,-0.058971,0.730066,0.719574,0.01739,0.713147,0.798886,-0.03765,0.76576,0.711958,0.011031,0.744116,0.811256,-0.05217,0.806734,0.705022,-0.001061,0.778703,0.790847,-0.036411,0.849598,0.70243,-0.014531,0.834398,0.510626,-0.013246,1,0,1
1044,'2026/05/14 11:51:54:177',5,0.792914,0.917857,-0.000001,0.6881,0.683562,-0.057547,0.729856,0.718503,0.018624,0.711613,0.799031,-0.038766,0.76553,0.711582,0.01169,0.7431,0.812941,-0.052486,0.806826,0.705085,-0.000912,0.778462,0.79202,-0.035725,0.849761,0.70301,-0.01487,0.834321,0.510684,-0.012218,1,0,1
1045,'2026/05/14 11:51:54:223',5,0.793179,0.915663,-0.000001,0.687509,0.685001,-0.053236,0.731057,0.720138,0.019591,0.712575,0.798756,-0.034844,0.765961,0.712581,0.012164,0.744337,0.811345,-0.049862,0.806708,0.705781,-0.000809,0.779973,0.791214,-0.035304,0.849296,0.702963,-0.01497,0.834221,0.50942,-0.012994,1,0,1
1046,'2026/05/14 11:51:54:256',5,0.792885,0.916157,-0.000001,0.687361,0.68558,-0.056624,0.729126,0.719755,0.018223,0.711087,0.798662,-0.037803,0.76496,0.712393,0.011209,0.743018,0.812197,-0.052113,0.806401,0.705557,-0.001424,0.779011,0.791739,-0.036751,0.849726,0.7026,-0.015296,0.833905,0.509753,-0.0128,1,0,1
1047,'2026/05/14 11:51:54:286',5,0.793203,0.915153,-0.000001,0.688372,0.685141,-0.056527,0.732594,0.72182,0.016983,0.71473,0.799392,-0.035368,0.767186,0.713813,0.010272,0.744442,0.811192,-0.050481,0.80735,0.706628,-0.00186,0.778705,0.79154,-0.035563,0.849413,0.703981,-0.015325,0.833466,0.509825,-0.01429,1,0,1
1048,'2026/05/14 11:51:54:319',5,0.792545,0.916488,-0.000001,0.687843,0.68536,-0.054228,0.731795,0.721296,0.017936,0.712245,0.798518,-0.034721,0.766243,0.71376,0.010634,0.743016,0.811795,-0.050749,0.806768,0.706932,-0.002029,0.778197,0.792453,-0.035467,0.849337,0.704417,-0.015919,0.833571,0.509966,-0.013778,1,0,1
1049,'2026/05/14 11:51:54:349',5,0.79236,0.915892,-0.000001,0.68664,0.686113,-0.055714,0.731797,0.720909,0.016284,0.712755,0.799472,-0.037496,0.766294,0.713326,0.009195,0.742773,0.811584,-0.052723,0.806624,0.706619,-0.003276,0.778216,0.791469,-0.037846,0.848858,0.704103,-0.016968,0.833211,0.509665,-0.016544,1,0,1
1050,'2026/05/14 11:51:54:383',5,0.792317,0.916338,-0.000001,0.686477,0.686468,-0.054282,0.72895,0.720188,0.019442,0.709688,0.799029,-0.036805,0.763882,0.712932,0.011811,0.741833,0.812297,-0.051259,0.805009,0.706137,-0.001385,0.778276,0.793029,-0.036121,0.848089,0.703134,-0.015756,0.83318,0.507936,-0.013166,1,0,1
1051,'2026/05/14 11:51:54:415',5,0.792198,0.918011,-0.000001,0.686992,0.686047,-0.053419,0.730233,0.720932,0.01948,0.710688,0.800681,-0.037128,0.764788,0.713313,0.011956,0.741929,0.813228,-0.050794,0.805434,0.706495,-0.001222,0.777369,0.793323,-0.035743,0.848155,0.70359,-0.015606,0.832728,0.507677,-0.014136,1,0,1
1052,'2026/05/14 11:51:54:444',5,0.792686,0.917662,-0.000001,0.685615,0.685543,-0.055474,0.730075,0.721766,0.018112,0.710171,0.800566,-0.037855,0.765173,0.713753,0.011215,0.741363,0.813219,-0.052069,0.80603,0.706326,-0.001295,0.776565,0.792999,-0.037303,0.848684,0.702529,-0.014982,0.832708,0.506739,-0.013843,1,0,1
1053,'2026/05/14 11:51:54:477',5,0.792657,0.917218,-0.000001,0.686826,0.685986,-0.053647,0.729567,0.72163,0.020197,0.710949,0.800231,-0.035524,0.764305,0.71354,0.012496,0.741813,0.812957,-0.050871,0.805127,0.705958,-0.000652,0.7767,0.793332,-0.035456,0.848248,0.702518,-0.014959,0.831222,0.508164,-0.012,1,0,1
1054,'2026/05/14 11:51:54:510',5,0.792964,0.918002,-0.000001,0.686291,0.687169,-0.054119,0.730464,0.72133,0.018638,0.712338,0.800311,-0.036916,0.765178,0.713758,0.010952,0.742298,0.81325,-0.051708,0.805794,0.706867,-0.002249,0.777066,0.794997,-0.036578,0.848468,0.704187,-0.016655,0.831117,0.507838,-0.015065,1,0,1
1055,'2026/05/14 11:51:54:541',5,0.792476,0.917335,-0.000001,0.686813,0.686484,-0.055388,0.728572,0.719912,0.018478,0.710823,0.801212,-0.037121,0.763947,0.712032,0.011367,0.741559,0.813196,-0.050695,0.805157,0.705017,-0.001471,0.777181,0.794073,-0.035802,0.848245,0.702228,-0.015618,0.831227,0.507606,-0.014556,1,0,1
1056,'2026/05/14 11:51:54:573',5,0.792637,0.917305,-0.000001,0.686191,0.687481,-0.055151,0.728834,0.720953,0.018904,0.710129,0.801364,-0.036321,0.764142,0.713275,0.011686,0.740858,0.813708,-0.05079,0.805293,0.706387,-0.001182,0.776543,0.794632,-0.035726,0.848477,0.703573,-0.015298,0.831369,0.508169,-0.013737,1,0,1
1057,'2026/05/14 11:51:54:628',5,0.793076,0.916507,-0.000001,0.685229,0.687397,-0.055938,0.728419,0.72085,0.018084,0.709499,0.801861,-0.037525,0.764147,0.712447,0.010968,0.7415,0.813372,-0.052224,0.805485,0.704807,-0.001809,0.777111,0.79341,-0.037841,0.848579,0.70108,-0.015776,0.831754,0.504962,-0.014694,1,0,1
1058,'2026/05/14 11:51:54:653',5,0.791962,0.916555,-0.000001,0.686939,0.686353,-0.056244,0.729034,0.718657,0.016964,0.711691,0.801392,-0.038356,0.764323,0.711296,0.009936,0.742687,0.81351,-0.052471,0.80546,0.705058,-0.002783,0.778154,0.792972,-0.036961,0.848584,0.703181,-0.016819,0.831446,0.506896,-0.016772,1,0,1
1059,'2026/05/14 11:51:54:685',5,0.792187,0.915554,-0.000001,0.685527,0.68749,-0.054679,0.730669,0.722922,0.016855,0.711817,0.801564,-0.036096,0.765487,0.714798,0.009452,0.74262,0.813032,-0.051882,0.80619,0.707613,-0.003282,0.778241,0.792922,-0.037144,0.848904,0.704714,-0.017246,0.831885,0.508094,-0.016687,1,0,1
1060,'2026/05/14 11:51:54:717',5,0.793661,0.916676,-0.000001,0.686765,0.688026,-0.054134,0.731097,0.721257,0.017095,0.712474,0.799858,-0.035659,0.765926,0.713345,0.009625,0.742244,0.812859,-0.051198,0.806624,0.706646,-0.003171,0.776524,0.794581,-0.036587,0.849163,0.70417,-0.01719,0.831627,0.506518,-0.016477,1,0,1
1061,'2026/05/14 11:51:54:755',5,0.793659,0.917458,-0.000001,0.687007,0.6872,-0.053979,0.730803,0.721322,0.018916,0.711497,0.800878,-0.036178,0.765434,0.713111,0.01167,0.741702,0.813634,-0.050474,0.806231,0.705748,-0.001198,0.777098,0.795229,-0.035406,0.849292,0.702488,-0.015299,0.83209,0.505839,-0.013591,1,0,1
1062,'2026/05/14 11:51:54:787',5,0.79315,0.917579,-0.000001,0.686882,0.687633,-0.055504,0.730475,0.721231,0.016608,0.710947,0.801252,-0.037707,0.765689,0.71348,0.009265,0.741645,0.813302,-0.052446,0.806767,0.706833,-0.003531,0.777226,0.794236,-0.037919,0.849588,0.70433,-0.017535,0.832365,0.507281,-0.017039,1,0,1
1063,'2026/05/14 11:51:54:818',5,0.792968,0.915236,-0.000001,0.686956,0.686672,-0.0555,0.730261,0.719833,0.01704,0.711102,0.801548,-0.038919,0.7652,0.711999,0.010084,0.742176,0.813782,-0.052419,0.805897,0.705057,-0.002548,0.777549,0.793172,-0.037446,0.848355,0.702153,-0.016406,0.83264,0.505801,-0.015854,1,0,1
1064,'2026/05/14 11:51:54:848',5,0.792001,0.917049,-0.000001,0.686446,0.686523,-0.056538,0.730576,0.719633,0.017445,0.711735,0.800429,-0.03928,0.765462,0.712855,0.010095,0.742118,0.81325,-0.053271,0.806174,0.706766,-0.002844,0.777205,0.793843,-0.037994,0.848572,0.70461,-0.01701,0.830378,0.507721,-0.016079,1,0,1
1065,'2026/05/14 11:51:54:879',5,0.79263,0.918744,-0.000001,0.687445,0.688144,-0.054782,0.729505,0.721107,0.018302,0.711853,0.799857,-0.035289,0.764808,0.713801,0.010754,0.741852,0.814401,-0.050864,0.805868,0.707399,-0.002261,0.776337,0.795934,-0.03557,0.848725,0.705423,-0.016579,0.831302,0.508275,-0.014826,1,0,1
1066,'2026/05/14 11:51:54:911',5,0.792031,0.917236,-0.000001,0.686589,0.687139,-0.053993,0.731032,0.720547,0.018593,0.71045,0.800746,-0.037397,0.765718,0.713592,0.010871,0.741489,0.813831,-0.052414,0.806408,0.707147,-0.002327,0.777056,0.794774,-0.037896,0.848841,0.704443,-0.016621,0.830557,0.507451,-0.015199,1,0,1
1067,'2026/05/14 11:51:54:943',5,0.794079,0.918566,-0.000001,0.687089,0.685879,-0.053716,0.73336,0.721506,0.02028,0.71278,0.800411,-0.034098,0.767213,0.713987,0.012817,0.74238,0.813962,-0.04943,0.807116,0.707175,-0.000237,0.775451,0.795665,-0.034511,0.848986,0.704332,-0.014503,0.830232,0.507006,-0.012429,1,0,1
1068,'2026/05/14 11:51:54:973',5,0.792687,0.915875,-0.000001,0.686526,0.686841,-0.055028,0.731753,0.722024,0.016988,0.713149,0.801148,-0.037237,0.766291,0.714194,0.010121,0.742949,0.813352,-0.051576,0.806564,0.707059,-0.002268,0.777159,0.792891,-0.037106,0.848634,0.703623,-0.015851,0.831341,0.506852,-0.01547,1,0,1
1069,'2026/05/14 11:51:55:023',5,0.791314,0.916063,-0.000001,0.684955,0.686045,-0.053628,0.732504,0.72308,0.017415,0.712047,0.802539,-0.037624,0.766328,0.714933,0.010229,0.741775,0.812883,-0.05172,0.806123,0.707457,-0.002341,0.774918,0.792279,-0.037382,0.847895,0.703645,-0.016024,0.829747,0.506961,-0.015383,1,0,1
1070,'2026/05/14 11:51:55:054',5,0.790925,0.916591,-0.000001,0.68498,0.689319,-0.0548,0.730329,0.721489,0.015768,0.711071,0.802955,-0.039071,0.764563,0.713969,0.008471,0.741008,0.813712,-0.052631,0.804744,0.707404,-0.004343,0.775946,0.793976,-0.037687,0.846705,0.70513,-0.018389,0.829305,0.507731,-0.017976,1,0,1
1071,'2026/05/14 11:51:55:086',5,0.788313,0.916608,-0.000001,0.682906,0.687145,-0.054644,0.72881,0.722549,0.016681,0.708236,0.805096,-0.041532,0.763214,0.713985,0.009894,0.738125,0.816217,-0.053874,0.803478,0.70671,-0.002569,0.772261,0.791593,-0.038405,0.845575,0.703667,-0.016234,0.828908,0.507894,-0.018291,1,0,1
1072,'2026/05/14 11:51:55:120',5,0.789059,0.915828,-0.000001,0.681366,0.68742,-0.057046,0.72767,0.722598,0.015922,0.708084,0.802553,-0.04123,0.761927,0.714349,0.009336,0.73817,0.813702,-0.054303,0.801777,0.707123,-0.00294,0.771533,0.791853,-0.039511,0.843335,0.703577,-0.016421,0.827729,0.506541,-0.017992,1,0,1
1073,'2026/05/14 11:51:55:150',5,0.786709,0.915722,-0.000001,0.679913,0.687605,-0.057753,0.726104,0.723707,0.014925,0.70459,0.80535,-0.042373,0.7603,0.714898,0.008467,0.736663,0.815891,-0.055066,0.800431,0.707258,-0.003739,0.771685,0.791172,-0.039873,0.842336,0.703368,-0.017215,0.826563,0.507534,-0.01906,1,0,1
1074,'2026/05/14 11:51:55:184',5,0.786507,0.916692,-0.000001,0.67987,0.689581,-0.056017,0.72456,0.722144,0.01692,0.704391,0.804685,-0.040024,0.759227,0.713556,0.009949,0.735244,0.815766,-0.053135,0.799647,0.706197,-0.002745,0.770615,0.7926,-0.038481,0.841954,0.702984,-0.016669,0.824158,0.506295,-0.017914,1,0,1
1075,'2026/05/14 11:51:55:221',5,0.787115,0.918744,-0.000001,0.678588,0.69009,-0.05148,0.727945,0.725664,0.017767,0.706476,0.804542,-0.036537,0.760645,0.717143,0.010343,0.734746,0.815775,-0.050958,0.799648,0.709587,-0.002415,0.76856,0.79538,-0.036331,0.840641,0.705984,-0.016312,0.822757,0.508244,-0.015449,1,0,1
1076,'2026/05/14 11:51:55:255',5,0.785263,0.918584,-0.000001,0.67806,0.690345,-0.055044,0.72617,0.72407,0.01849,0.705106,0.804769,-0.034814,0.759186,0.715555,0.011157,0.733324,0.816673,-0.049876,0.798195,0.708071,-0.001612,0.764584,0.797665,-0.035228,0.839285,0.704864,-0.015581,0.820594,0.507881,-0.013322,1,0,1
1077,'2026/05/14 11:51:55:285',5,0.783069,0.918212,-0.000001,0.675401,0.690263,-0.056031,0.720371,0.725532,0.016058,0.700192,0.808667,-0.041864,0.755063,0.715953,0.009796,0.731003,0.819349,-0.054307,0.79572,0.707698,-0.002291,0.765919,0.793901,-0.038315,0.838369,0.703745,-0.01569,0.818787,0.507384,-0.018788,1,0,1
1078,'2026/05/14 11:51:55:314',5,0.781399,0.917108,-0.000001,0.673136,0.692485,-0.050849,0.719824,0.727667,0.018143,0.69858,0.80765,-0.038535,0.753442,0.71777,0.010902,0.729236,0.817606,-0.051677,0.793114,0.708796,-0.001842,0.762771,0.794513,-0.036265,0.835095,0.703938,-0.015721,0.816666,0.508057,-0.016872,1,0,1
1079,'2026/05/14 11:51:55:345',5,0.777766,0.918129,-0.000001,0.670287,0.692086,-0.053167,0.716353,0.728479,0.017465,0.693993,0.808545,-0.039287,0.750111,0.718566,0.010411,0.726443,0.818375,-0.053045,0.790193,0.709789,-0.002243,0.760947,0.794199,-0.037223,0.832416,0.704905,-0.01611,0.815499,0.509351,-0.017422,1,0,1
1080,'2026/05/14 11:51:55:377',5,0.775136,0.918355,-0.000001,0.667519,0.693612,-0.056929,0.713729,0.728132,0.014271,0.694256,0.811629,-0.042947,0.747929,0.718003,0.008636,0.724671,0.821453,-0.054457,0.787953,0.709817,-0.002921,0.757926,0.796857,-0.039346,0.829896,0.705666,-0.015776,0.812965,0.506588,-0.02139,1,0,1
1081,'2026/05/14 11:51:55:429',5,0.775227,0.917829,-0.000001,0.666327,0.695615,-0.052056,0.712956,0.728746,0.0179,0.692946,0.812077,-0.038925,0.746581,0.718434,0.011345,0.72357,0.82043,-0.050995,0.786271,0.709322,-0.000987,0.757164,0.794168,-0.035934,0.828017,0.70427,-0.014547,0.809155,0.508744,-0.016421,1,0,1
1082,'2026/05/14 11:51:55:454',5,0.77472,0.918525,-0.000001,0.664234,0.696101,-0.059205,0.71015,0.729647,0.010349,0.692982,0.81408,-0.046601,0.744971,0.71861,0.005482,0.72317,0.823564,-0.056928,0.785459,0.709865,-0.005182,0.756411,0.79508,-0.040317,0.827613,0.705527,-0.017298,0.807456,0.506766,-0.024094,1,0,1
1083,'2026/05/14 11:51:55:487',5,0.772465,0.918766,-0.000001,0.662268,0.699,-0.06015,0.709268,0.729649,0.011675,0.692281,0.81721,-0.046766,0.744271,0.719023,0.006527,0.722354,0.823401,-0.057962,0.784595,0.710748,-0.004448,0.75364,0.794999,-0.040807,0.826247,0.706553,-0.016864,0.807134,0.50899,-0.022701,1,0,1
1084,'2026/05/14 11:51:55:519',5,0.772066,0.917868,-0.000001,0.662513,0.697355,-0.060549,0.710139,0.729288,0.010914,0.692634,0.81644,-0.048029,0.744618,0.718677,0.006212,0.721241,0.824857,-0.058515,0.7845,0.710343,-0.004434,0.752849,0.796092,-0.041441,0.826066,0.705985,-0.016535,0.805579,0.507071,-0.023949,1,0,1
1085,'2026/05/14 11:51:55:549',5,0.772293,0.921378,-0.000001,0.662115,0.69733,-0.058043,0.708948,0.7313,0.015585,0.689892,0.815569,-0.043137,0.742838,0.72099,0.009449,0.720733,0.825105,-0.055125,0.782638,0.712005,-0.00266,0.753713,0.799167,-0.038747,0.824328,0.706997,-0.016113,0.805674,0.511454,-0.018831,1,0,1
1086,'2026/05/14 11:51:55:584',5,0.769372,0.922219,-0.000001,0.660235,0.698738,-0.061051,0.706664,0.730782,0.011872,0.688622,0.817994,-0.046957,0.741244,0.720463,0.006543,0.71856,0.826716,-0.058402,0.781467,0.71243,-0.004762,0.750555,0.799067,-0.041864,0.8233,0.708171,-0.017476,0.804659,0.509108,-0.024103,1,0,1
1087,'2026/05/14 11:51:55:613',5,0.767524,0.921928,-0.000001,0.65604,0.703614,-0.060122,0.703595,0.733153,0.01156,0.686609,0.823167,-0.047175,0.738534,0.721479,0.006972,0.716652,0.829105,-0.056764,0.778733,0.712345,-0.003624,0.747184,0.800362,-0.039734,0.820221,0.707217,-0.015695,0.800532,0.509393,-0.021849,1,0,1
1088,'2026/05/14 11:51:55:646',5,0.764209,0.925618,-0.000001,0.651593,0.705746,-0.061213,0.699302,0.733982,0.010359,0.680777,0.826031,-0.048596,0.734072,0.722755,0.005272,0.711876,0.832052,-0.05826,0.774342,0.71421,-0.005704,0.742912,0.80143,-0.041009,0.815988,0.709877,-0.018126,0.796545,0.510635,-0.024468,1,0,1
1089,'2026/05/14 11:51:55:679',5,0.760752,0.924401,-0.000001,0.647882,0.7064,-0.059894,0.695579,0.734232,0.010486,0.677377,0.825918,-0.047536,0.730197,0.723196,0.005268,0.708292,0.830731,-0.057512,0.770259,0.714473,-0.005638,0.738222,0.800975,-0.041628,0.811713,0.709549,-0.017816,0.792703,0.511213,-0.023815,1,0,1
1090,'2026/05/14 11:51:55:710',5,0.75887,0.92847,-0.000001,0.643532,0.706676,-0.054767,0.693452,0.737771,0.01199,0.674021,0.829483,-0.045527,0.726133,0.726558,0.005706,0.70528,0.834747,-0.05621,0.76584,0.716805,-0.006075,0.737204,0.803185,-0.04093,0.807463,0.710884,-0.019014,0.789616,0.508101,-0.022877,1,0,1
1091,'2026/05/14 11:51:55:742',5,0.756817,0.924803,-0.000001,0.6411,0.705773,-0.062476,0.68988,0.735399,0.008976,0.672883,0.82806,-0.049634,0.724565,0.723031,0.004633,0.702886,0.832124,-0.058313,0.764521,0.713054,-0.005666,0.732509,0.79974,-0.041214,0.806262,0.706929,-0.017449,0.785595,0.507806,-0.02416,1,0,1
1092,'2026/05/14 11:51:55:773',5,0.756702,0.925039,-0.000001,0.64027,0.705344,-0.064347,0.68604,0.73325,0.009218,0.671632,0.828778,-0.050963,0.722332,0.72002,0.005719,0.701431,0.834765,-0.058315,0.763435,0.710429,-0.003962,0.73176,0.800886,-0.039759,0.805449,0.705412,-0.015255,0.781734,0.504879,-0.023152,1,0,1
1093,'2026/05/14 11:51:55:827',5,0.754676,0.927372,-0.000001,0.638277,0.70334,-0.063591,0.68648,0.732694,0.009817,0.668839,0.826955,-0.051086,0.721964,0.721528,0.004573,0.699319,0.833544,-0.060836,0.763017,0.712419,-0.006639,0.731627,0.80094,-0.043252,0.805614,0.707155,-0.019269,0.783708,0.504176,-0.025322,1,0,1
1094,'2026/05/14 11:51:55:860',5,0.755762,0.926165,-0.000001,0.638305,0.702595,-0.064327,0.687134,0.732362,0.008748,0.670956,0.828051,-0.052571,0.722842,0.720446,0.00429,0.701305,0.832392,-0.061249,0.764018,0.711149,-0.006288,0.731933,0.799828,-0.043326,0.806624,0.705624,-0.01839,0.783877,0.502445,-0.025688,1,0,1
1095,'2026/05/14 11:51:55:891',5,0.756444,0.92544,-0.000001,0.640231,0.70261,-0.063181,0.687144,0.731137,0.008745,0.671613,0.826105,-0.051538,0.723095,0.719512,0.003925,0.702756,0.832455,-0.060614,0.764607,0.710329,-0.007059,0.733729,0.801397,-0.044147,0.807644,0.704647,-0.019522,0.784779,0.498442,-0.027601,1,0,1
1096,'2026/05/14 11:51:55:922',5,0.759297,0.922907,-0.000001,0.640369,0.702871,-0.067566,0.688043,0.732934,0.007397,0.674341,0.828186,-0.053682,0.724802,0.718743,0.004223,0.704664,0.832893,-0.061012,0.766216,0.708066,-0.005337,0.734459,0.801891,-0.043461,0.809112,0.701257,-0.016547,0.783765,0.496915,-0.025406,1,0,1
1097,'2026/05/14 11:51:55:953',5,0.75889,0.925229,-0.000001,0.641989,0.701688,-0.064838,0.689642,0.730638,0.007812,0.674369,0.826452,-0.052393,0.725442,0.719304,0.003259,0.705384,0.832373,-0.061774,0.766787,0.710177,-0.00752,0.736929,0.799902,-0.045542,0.809803,0.704479,-0.019791,0.787403,0.498304,-0.027923,1,0,1
1098,'2026/05/14 11:51:55:986',5,0.760071,0.92487,-0.000001,0.642798,0.702092,-0.064892,0.69163,0.733431,0.006585,0.673638,0.827864,-0.05302,0.726706,0.721018,0.002198,0.704634,0.832056,-0.060828,0.767362,0.711439,-0.008342,0.735817,0.802279,-0.044251,0.809898,0.705758,-0.020416,0.787083,0.499757,-0.028951,1,0,1
1099,'2026/05/14 11:51:56:018',5,0.75957,0.92746,-0.000001,0.641898,0.703862,-0.062206,0.69169,0.733791,0.009227,0.674654,0.828686,-0.051044,0.726059,0.722751,0.003551,0.704922,0.833741,-0.060875,0.766571,0.71356,-0.008108,0.736887,0.802542,-0.045034,0.809036,0.707871,-0.021105,0.788244,0.503124,-0.027472,1,0,1
1100,'2026/05/14 11:51:56:049',5,0.760723,0.928394,-0.000001,0.643044,0.703776,-0.06156,0.691749,0.733803,0.010412,0.675141,0.827662,-0.048826,0.725886,0.722766,0.004848,0.705882,0.833146,-0.058571,0.766228,0.713404,-0.006677,0.737289,0.802856,-0.042946,0.808537,0.707522,-0.019526,0.788691,0.504812,-0.024545,1,0,1
1101,'2026/05/14 11:51:56:081',5,0.760485,0.925891,-0.000001,0.64347,0.701686,-0.065909,0.691661,0.732375,0.00741,0.676144,0.825559,-0.053507,0.727248,0.72069,0.003192,0.706071,0.831052,-0.061829,0.767947,0.711678,-0.007144,0.73643,0.800601,-0.044029,0.810042,0.706498,-0.019029,0.788475,0.504829,-0.02687,1,0,1
1102,'2026/05/14 11:51:56:113',5,0.761995,0.922364,-0.000001,0.644773,0.702416,-0.063807,0.694617,0.733879,0.008028,0.677919,0.825099,-0.050994,0.729523,0.721103,0.004193,0.707554,0.829257,-0.059635,0.769435,0.711097,-0.005598,0.737149,0.797812,-0.042017,0.810349,0.70505,-0.016867,0.788335,0.507027,-0.023921,1,0,1
1103,'2026/05/14 11:51:56:142',5,0.763203,0.918737,-0.000001,0.646696,0.701384,-0.064403,0.692455,0.732783,0.007989,0.679432,0.822851,-0.050454,0.728895,0.719519,0.004676,0.709225,0.82752,-0.059061,0.769877,0.709756,-0.004634,0.738321,0.797778,-0.041277,0.811816,0.70391,-0.015454,0.78804,0.505229,-0.023798,1,0,1
1104,'2026/05/14 11:51:56:175',5,0.763806,0.917728,-0.000001,0.646962,0.700228,-0.065169,0.694333,0.731226,0.007402,0.680244,0.821199,-0.051532,0.730757,0.718571,0.004005,0.709997,0.827058,-0.060371,0.771802,0.709022,-0.005394,0.740692,0.797141,-0.042473,0.814263,0.703359,-0.016377,0.790462,0.50363,-0.024859,1,0,1
1105,'2026/05/14 11:51:56:224',5,0.763527,0.922212,-0.000001,0.649416,0.699189,-0.063104,0.698394,0.731204,0.010238,0.681507,0.821247,-0.050229,0.732961,0.719932,0.00575,0.710501,0.827704,-0.059839,0.773098,0.710987,-0.004891,0.74121,0.798936,-0.042288,0.814753,0.705706,-0.017045,0.79364,0.505435,-0.024498,1,0,1
1106,'2026/05/14 11:51:56:254',5,0.765116,0.921263,-0.000001,0.64982,0.699222,-0.064722,0.69749,0.729973,0.009139,0.682006,0.821064,-0.05162,0.733112,0.718271,0.005486,0.71139,0.828279,-0.059695,0.773804,0.709484,-0.004432,0.742067,0.79827,-0.041491,0.815761,0.704568,-0.016003,0.793869,0.50548,-0.024417,1,0,1
1107,'2026/05/14 11:51:56:289',5,0.766912,0.919552,-0.000001,0.650733,0.700565,-0.062783,0.698069,0.731813,0.006025,0.683436,0.822101,-0.051821,0.734136,0.719059,0.002767,0.712813,0.828666,-0.059895,0.775238,0.709601,-0.006433,0.744228,0.798757,-0.042202,0.817511,0.704571,-0.017231,0.793957,0.503904,-0.026827,1,0,1
1108,'2026/05/14 11:51:56:318',5,0.770067,0.920694,-0.000001,0.652176,0.700365,-0.05956,0.702495,0.734066,0.008922,0.685978,0.821295,-0.049268,0.737153,0.720347,0.005545,0.714222,0.828012,-0.056739,0.776908,0.709429,-0.003711,0.744822,0.797826,-0.038429,0.818279,0.703183,-0.014503,0.794094,0.503462,-0.022196,1,0,1
1109,'2026/05/14 11:51:56:348',5,0.768803,0.920307,-0.000001,0.653007,0.700937,-0.063132,0.701599,0.731495,0.006554,0.685604,0.821392,-0.052705,0.736876,0.718774,0.0033,0.714357,0.828652,-0.059018,0.777317,0.709288,-0.005946,0.744912,0.797747,-0.041031,0.818903,0.704109,-0.016774,0.79444,0.504152,-0.026235,1,0,1
1110,'2026/05/14 11:51:56:382',5,0.769781,0.922566,-0.000001,0.653406,0.701259,-0.062184,0.700731,0.730097,0.010114,0.686611,0.818668,-0.050393,0.73607,0.717869,0.00597,0.715518,0.825263,-0.057896,0.776435,0.708654,-0.004225,0.745793,0.797893,-0.039795,0.817853,0.70394,-0.015973,0.795185,0.507019,-0.022241,1,0,1
1111,'2026/05/14 11:51:56:416',5,0.770593,0.921192,-0.000001,0.654504,0.700175,-0.059707,0.702024,0.730561,0.010984,0.687904,0.818026,-0.049239,0.737039,0.718007,0.006807,0.71593,0.82417,-0.056253,0.777275,0.708637,-0.00334,0.746482,0.795722,-0.038213,0.818485,0.703787,-0.014961,0.79527,0.507846,-0.021035,1,0,1
1112,'2026/05/14 11:51:56:446',5,0.771637,0.918031,-0.000001,0.655045,0.700248,-0.060743,0.703805,0.731402,0.00903,0.688607,0.817721,-0.04981,0.73858,0.718487,0.00559,0.717097,0.822746,-0.056809,0.778526,0.708596,-0.003764,0.747411,0.792896,-0.038912,0.81945,0.703058,-0.014659,0.794521,0.507855,-0.022072,1,0,1
1113,'2026/05/14 11:51:56:478',5,0.772543,0.917273,-0.000001,0.655849,0.699326,-0.059222,0.705434,0.732229,0.010179,0.689936,0.816756,-0.048666,0.739818,0.718803,0.006738,0.718009,0.82188,-0.055661,0.779591,0.708329,-0.00252,0.748752,0.791426,-0.037298,0.82057,0.702457,-0.013303,0.795953,0.506526,-0.020487,1,0,1
1114,'2026/05/14 11:51:56:513',5,0.773496,0.919018,-0.000001,0.65792,0.699196,-0.057978,0.707183,0.731644,0.010869,0.690414,0.817326,-0.047654,0.741041,0.718427,0.006943,0.718354,0.82384,-0.054898,0.780449,0.708059,-0.002826,0.749141,0.794423,-0.037313,0.821226,0.702111,-0.014052,0.796497,0.50726,-0.020841,1,0,1
1115,'2026/05/14 11:51:56:552',5,0.772652,0.91734,-0.000001,0.656816,0.698303,-0.059322,0.704653,0.729428,0.010835,0.690768,0.815784,-0.048495,0.739772,0.716988,0.006821,0.719144,0.822474,-0.056111,0.780123,0.707672,-0.003105,0.749956,0.793243,-0.0384,0.821611,0.702792,-0.01455,0.799212,0.508959,-0.021685,1,0,1
1116,'2026/05/14 11:51:56:584',5,0.772155,0.915885,-0.000001,0.658313,0.699906,-0.05998,0.705254,0.729565,0.010381,0.689987,0.816034,-0.046236,0.740579,0.717682,0.006193,0.720566,0.821639,-0.056217,0.781189,0.708648,-0.003742,0.750933,0.790152,-0.03808,0.822661,0.703782,-0.015195,0.801539,0.51151,-0.020667,1,0,1
1117,'2026/05/14 11:51:56:622',5,0.772652,0.918622,-0.000001,0.659019,0.699633,-0.062034,0.705901,0.729168,0.009982,0.690236,0.815675,-0.049915,0.741356,0.717156,0.005742,0.719543,0.822186,-0.058278,0.781814,0.708126,-0.004469,0.749894,0.794026,-0.040075,0.823227,0.703505,-0.016277,0.801546,0.509545,-0.023519,1,0,1
1118,'2026/05/14 11:51:56:660',5,0.774339,0.917167,-0.000001,0.658656,0.698259,-0.062501,0.706214,0.728711,0.009544,0.690994,0.816201,-0.05108,0.74166,0.716309,0.005867,0.719687,0.823113,-0.058306,0.782192,0.707074,-0.003793,0.751006,0.794994,-0.039857,0.823953,0.702553,-0.015048,0.801883,0.507199,-0.022737,1,0,1
1119,'2026/05/14 11:51:56:692',5,0.775429,0.917519,-0.000001,0.658176,0.699283,-0.063098,0.70649,0.730751,0.007896,0.693658,0.817597,-0.052131,0.741861,0.717523,0.004478,0.722045,0.822635,-0.059168,0.782502,0.707363,-0.00482,0.752589,0.793601,-0.040093,0.824129,0.701904,-0.015743,0.801507,0.505225,-0.023126,1,0,1
1120,'2026/05/14 11:51:56:730',5,0.77536,0.918632,-0.000001,0.657753,0.699188,-0.061131,0.705426,0.73041,0.010257,0.692556,0.817362,-0.051046,0.740831,0.717275,0.006217,0.721053,0.823334,-0.057783,0.781516,0.707286,-0.003757,0.751821,0.795295,-0.039286,0.823335,0.701898,-0.015264,0.800811,0.505431,-0.022371,1,0,1
1121,'2026/05/14 11:51:56:753',5,0.774133,0.917423,-0.000001,0.657905,0.700373,-0.064454,0.704648,0.728773,0.008205,0.691136,0.817213,-0.051892,0.740639,0.716195,0.005097,0.720533,0.823083,-0.058697,0.781328,0.706957,-0.00407,0.750133,0.795273,-0.040146,0.822723,0.702109,-0.014899,0.801071,0.507451,-0.022751,1,0,1
1122,'2026/05/14 11:51:56:784',5,0.772863,0.91795,-0.000001,0.657065,0.702026,-0.060002,0.705343,0.7299,0.009838,0.691582,0.816365,-0.048765,0.740499,0.717829,0.005331,0.72167,0.822091,-0.057806,0.780888,0.708655,-0.004935,0.751083,0.793366,-0.039657,0.822089,0.703643,-0.016721,0.801544,0.509606,-0.022512,1,0,1
1123,'2026/05/14 11:51:56:815',5,0.773374,0.919583,-0.000001,0.657611,0.701889,-0.060097,0.704334,0.730352,0.008967,0.689874,0.816607,-0.048015,0.739924,0.718583,0.004526,0.722365,0.821017,-0.057551,0.780654,0.709636,-0.005571,0.75194,0.791782,-0.039143,0.821717,0.705023,-0.017203,0.801808,0.511164,-0.022412,1,0,1
1124,'2026/05/14 11:51:56:847',5,0.772848,0.91683,-0.000001,0.657025,0.700265,-0.06247,0.704286,0.729443,0.009239,0.690349,0.81622,-0.049826,0.73981,0.716992,0.00549,0.7203,0.823133,-0.058126,0.780596,0.707732,-0.004194,0.750123,0.793205,-0.039684,0.822495,0.702764,-0.015474,0.801234,0.508129,-0.022466,1,0,1
1125,'2026/05/14 11:51:56:877',5,0.774736,0.91562,-0.000001,0.657022,0.700367,-0.061099,0.706371,0.731841,0.008305,0.690915,0.819251,-0.049765,0.741335,0.718318,0.00498,0.71981,0.825037,-0.057834,0.781369,0.707753,-0.004171,0.750471,0.794798,-0.039913,0.822585,0.701586,-0.014862,0.799592,0.505125,-0.022885,1,0,1
1126,'2026/05/14 11:51:56:910',5,0.773037,0.914461,-0.000001,0.655711,0.700115,-0.061199,0.703177,0.730447,0.007986,0.689643,0.818203,-0.049212,0.738786,0.717092,0.004722,0.718669,0.823794,-0.057688,0.7794,0.707238,-0.004395,0.749521,0.794933,-0.040157,0.821158,0.701671,-0.015048,0.798464,0.505648,-0.023333,1,0,1
1127,'2026/05/14 11:51:56:942',5,0.77313,0.915919,-0.000001,0.6569,0.700083,-0.060374,0.704692,0.732942,0.008902,0.689798,0.819618,-0.048917,0.739873,0.718885,0.005697,0.718976,0.826206,-0.056194,0.78007,0.707983,-0.003363,0.749673,0.796168,-0.038327,0.821986,0.701688,-0.014003,0.798408,0.50607,-0.022448,1,0,1
1128,'2026/05/14 11:51:56:974',5,0.774188,0.917268,-0.000001,0.656055,0.700574,-0.058455,0.706058,0.733516,0.007849,0.690866,0.820457,-0.048366,0.740659,0.719511,0.004816,0.719973,0.825971,-0.05637,0.780374,0.708439,-0.00381,0.749848,0.794381,-0.037477,0.821271,0.701932,-0.013987,0.797654,0.505485,-0.021674,1,0,1
1129,'2026/05/14 11:51:57:033',5,0.772837,0.916347,-0.000001,0.654894,0.701221,-0.059913,0.705892,0.733475,0.008348,0.690537,0.820157,-0.0493,0.740205,0.720125,0.005213,0.719509,0.825831,-0.05745,0.779673,0.70949,-0.003801,0.749493,0.796558,-0.039112,0.820609,0.703075,-0.014382,0.797146,0.504942,-0.022347,1,0,1
1130,'2026/05/14 11:51:57:066',5,0.772119,0.916561,-0.000001,0.654405,0.700811,-0.06064,0.703036,0.732104,0.008097,0.688703,0.818846,-0.049544,0.738347,0.718807,0.004461,0.718049,0.824602,-0.058349,0.778775,0.708466,-0.00492,0.749177,0.795236,-0.04045,0.820438,0.702503,-0.015807,0.797673,0.505011,-0.0238,1,0,1
1131,'2026/05/14 11:51:57:100',5,0.774546,0.917007,-0.000001,0.655913,0.700246,-0.060453,0.704375,0.733354,0.006515,0.691542,0.819853,-0.050646,0.73925,0.719686,0.003703,0.719756,0.825551,-0.057588,0.77946,0.709096,-0.004803,0.749403,0.791876,-0.03777,0.820941,0.703366,-0.014957,0.798369,0.505638,-0.023848,1,0,1
1132,'2026/05/14 11:51:57:129',5,0.773281,0.917951,-0.000001,0.655896,0.700637,-0.060902,0.704051,0.731241,0.008371,0.690817,0.819315,-0.050177,0.739462,0.717757,0.005191,0.718808,0.824651,-0.057345,0.77977,0.707435,-0.003833,0.748675,0.793766,-0.038958,0.820771,0.701829,-0.0144,0.797411,0.504574,-0.022643,1,0,1
1133,'2026/05/14 11:51:57:161',5,0.772979,0.915522,-0.000001,0.655249,0.700651,-0.060268,0.704903,0.73279,0.007876,0.690508,0.818781,-0.049608,0.739518,0.719466,0.004602,0.719247,0.824575,-0.057448,0.779364,0.708987,-0.004503,0.749913,0.796063,-0.03999,0.820564,0.702761,-0.0151,0.797766,0.505351,-0.023001,1,0,1
1134,'2026/05/14 11:51:57:191',5,0.773987,0.916402,-0.000001,0.656033,0.701486,-0.058339,0.704435,0.732983,0.009173,0.690338,0.819575,-0.047622,0.739446,0.718911,0.005765,0.719642,0.825115,-0.055626,0.779686,0.707868,-0.00334,0.749839,0.79444,-0.037742,0.821111,0.70142,-0.013944,0.797531,0.504636,-0.021605,1,0,1
1135,'2026/05/14 11:51:57:221',5,0.772541,0.916567,-0.000001,0.65574,0.70125,-0.059564,0.704796,0.732799,0.008656,0.689947,0.818662,-0.04922,0.739479,0.719084,0.004968,0.718931,0.824622,-0.05724,0.77956,0.70828,-0.004402,0.749776,0.79446,-0.039099,0.820643,0.702043,-0.015221,0.797276,0.504531,-0.022454,1,0,1
1136,'2026/05/14 11:51:57:252',5,0.772973,0.917217,-0.000001,0.655507,0.700447,-0.062348,0.702833,0.732625,0.00805,0.691058,0.819588,-0.049691,0.738189,0.718725,0.005067,0.719953,0.823739,-0.057168,0.778656,0.708287,-0.003848,0.749008,0.794519,-0.039018,0.819911,0.702362,-0.01435,0.795898,0.505468,-0.022104,1,0,1
1137,'2026/05/14 11:51:57:283',5,0.773944,0.92028,-0.000001,0.654974,0.701326,-0.058976,0.704084,0.73223,0.01131,0.691528,0.819531,-0.048421,0.738634,0.718729,0.007032,0.719627,0.824927,-0.055333,0.778572,0.707979,-0.003156,0.749803,0.795545,-0.037309,0.819516,0.701768,-0.014773,0.795478,0.506029,-0.019503,1,0,1
1138,'2026/05/14 11:51:57:314',5,0.773152,0.918165,-0.000001,0.654939,0.701501,-0.060162,0.703676,0.731859,0.009137,0.68906,0.81872,-0.048678,0.738612,0.718322,0.005625,0.71817,0.823652,-0.056064,0.778757,0.708074,-0.003779,0.748396,0.793699,-0.038243,0.819754,0.702438,-0.014706,0.796016,0.506099,-0.021561,1,0,1
1139,'2026/05/14 11:51:57:345',5,0.773317,0.918437,-0.000001,0.655042,0.701617,-0.05959,0.706593,0.733827,0.008151,0.690874,0.819965,-0.049923,0.740453,0.720274,0.004677,0.718881,0.825017,-0.057192,0.780055,0.709451,-0.004573,0.749449,0.793092,-0.038513,0.820942,0.703119,-0.015397,0.796298,0.505353,-0.022676,1,0,1
1140,'2026/05/14 11:51:57:377',5,0.772302,0.918118,-0.000001,0.65506,0.701398,-0.059253,0.704602,0.732255,0.008777,0.689626,0.819302,-0.048945,0.739197,0.718938,0.004828,0.718367,0.825352,-0.057312,0.77925,0.708877,-0.004828,0.749567,0.796394,-0.040146,0.820336,0.703215,-0.015894,0.796937,0.505575,-0.023545,1,0,1
1141,'2026/05/14 11:51:57:423',5,0.773423,0.918517,-0.000001,0.655821,0.701117,-0.058754,0.705719,0.732726,0.010126,0.691503,0.820296,-0.047022,0.740283,0.719073,0.00657,0.720016,0.825099,-0.054986,0.780246,0.708311,-0.002867,0.750422,0.794443,-0.037322,0.821167,0.702096,-0.013823,0.796715,0.505608,-0.020317,1,0,1
1142,'2026/05/14 11:51:57:455',5,0.773385,0.916089,-0.000001,0.654735,0.7018,-0.058693,0.705135,0.732996,0.007806,0.691672,0.819844,-0.04918,0.739881,0.719581,0.004514,0.719883,0.825073,-0.057138,0.779817,0.708829,-0.004421,0.750158,0.792941,-0.03784,0.820698,0.70283,-0.014906,0.797824,0.505526,-0.022399,1,0,1
1143,'2026/05/14 11:51:57:488',5,0.773709,0.915361,-0.000001,0.656168,0.701551,-0.059831,0.705064,0.732742,0.007643,0.690375,0.820625,-0.048818,0.740144,0.718994,0.004619,0.719755,0.825551,-0.056778,0.780194,0.708381,-0.00415,0.749537,0.793633,-0.038114,0.821185,0.702363,-0.01455,0.796677,0.505394,-0.023096,1,0,1
1144,'2026/05/14 11:51:57:519',5,0.773167,0.915802,-0.000001,0.655856,0.699996,-0.060522,0.702937,0.732491,0.008189,0.690478,0.820483,-0.049492,0.738475,0.718573,0.004828,0.719067,0.825696,-0.056962,0.778925,0.707823,-0.004246,0.749488,0.793959,-0.037918,0.820105,0.701731,-0.014861,0.796498,0.504508,-0.022489,1,0,1
1145,'2026/05/14 11:51:57:551',5,0.773135,0.914028,-0.000001,0.655466,0.700218,-0.057942,0.704005,0.73334,0.007968,0.690561,0.820134,-0.047823,0.738941,0.719864,0.004769,0.719729,0.826357,-0.05597,0.778963,0.709457,-0.004096,0.749578,0.794788,-0.036825,0.820555,0.703318,-0.014551,0.79706,0.505468,-0.023271,1,0,1
1146,'2026/05/14 11:51:57:582',5,0.772863,0.916666,-0.000001,0.656572,0.699929,-0.060301,0.702831,0.733141,0.008724,0.68949,0.819455,-0.049506,0.737994,0.719368,0.005076,0.717991,0.825496,-0.057192,0.778316,0.708741,-0.004277,0.74842,0.795838,-0.038459,0.819559,0.702464,-0.015119,0.796267,0.50486,-0.022682,1,0,1
1147,'2026/05/14 11:51:57:615',5,0.774818,0.916589,-0.000001,0.655899,0.700177,-0.060048,0.704774,0.734169,0.007655,0.691287,0.820362,-0.049074,0.73942,0.720215,0.00474,0.719736,0.825545,-0.056782,0.779398,0.709175,-0.003922,0.750106,0.793472,-0.037231,0.820374,0.702844,-0.014196,0.796741,0.505649,-0.022336,1,0,1
1148,'2026/05/14 11:51:57:646',5,0.7747,0.91681,-0.000001,0.656171,0.700253,-0.058866,0.706068,0.73353,0.007767,0.691616,0.821159,-0.049362,0.740738,0.720373,0.00466,0.720701,0.826991,-0.056844,0.780479,0.709548,-0.004184,0.750805,0.796054,-0.037384,0.821417,0.70317,-0.014621,0.79646,0.506298,-0.022425,1,0,1
1149,'2026/05/14 11:51:57:678',5,0.773415,0.913994,-0.000001,0.656022,0.700548,-0.060527,0.704596,0.732146,0.007912,0.691138,0.820598,-0.050155,0.73972,0.71883,0.004837,0.720348,0.82628,-0.056927,0.779761,0.708453,-0.00417,0.750566,0.795345,-0.03803,0.820924,0.702247,-0.014841,0.797198,0.505959,-0.022973,1,0,1
1150,'2026/05/14 11:51:57:709',5,0.773273,0.914906,-0.000001,0.655973,0.699861,-0.060783,0.704698,0.732692,0.005921,0.691838,0.820679,-0.051518,0.739741,0.719773,0.003015,0.720635,0.826515,-0.058648,0.780098,0.709285,-0.005681,0.75119,0.79509,-0.0389,0.821361,0.703046,-0.016047,0.796456,0.506318,-0.024551,1,0,1
1151,'2026/05/14 11:51:57:743',5,0.77385,0.918076,-0.000001,0.655959,0.703002,-0.056811,0.707542,0.735024,0.009346,0.691063,0.820381,-0.046887,0.741281,0.721744,0.005744,0.719942,0.82523,-0.055582,0.780649,0.710728,-0.003488,0.750337,0.795685,-0.037689,0.821306,0.704013,-0.014147,0.795836,0.50569,-0.02076,1,0,1
1152,'2026/05/14 11:51:57:782',5,0.773666,0.917252,-0.000001,0.656136,0.701373,-0.060932,0.704444,0.732368,0.00764,0.69158,0.820755,-0.049748,0.739356,0.71873,0.004515,0.720231,0.826219,-0.057089,0.779426,0.708205,-0.004394,0.750326,0.795081,-0.038152,0.820403,0.70227,-0.014884,0.79634,0.505176,-0.022495,1,0,1
1153,'2026/05/14 11:51:57:824',5,0.774231,0.916558,-0.000001,0.656334,0.699422,-0.058418,0.703416,0.732612,0.008942,0.69151,0.820196,-0.047413,0.738719,0.718708,0.005967,0.719366,0.82589,-0.055233,0.778907,0.708252,-0.002847,0.749051,0.794931,-0.036265,0.820225,0.7026,-0.013277,0.79604,0.505043,-0.022285,1,0,1
1154,'2026/05/14 11:51:57:862',5,0.773381,0.915339,-0.000001,0.656389,0.699774,-0.057948,0.703254,0.735671,0.008023,0.691061,0.819872,-0.047803,0.73836,0.721819,0.004922,0.719406,0.82487,-0.056309,0.778504,0.711066,-0.003825,0.748883,0.794021,-0.037274,0.819714,0.704398,-0.014108,0.794558,0.506453,-0.02319,1,0,1
1155,'2026/05/14 11:51:57:889',5,0.773349,0.915651,-0.000001,0.655683,0.698093,-0.059063,0.703023,0.731885,0.005934,0.690687,0.81991,-0.050542,0.738326,0.719131,0.003101,0.718882,0.827169,-0.057511,0.778829,0.709208,-0.005437,0.749154,0.79632,-0.037871,0.820225,0.703495,-0.015597,0.795573,0.506016,-0.024866,1,0,1
1156,'2026/05/14 11:51:57:920',5,0.773086,0.917952,-0.000001,0.656221,0.700145,-0.059928,0.7048,0.734549,0.007749,0.691167,0.821838,-0.048723,0.739188,0.720717,0.004653,0.719313,0.826914,-0.056366,0.779019,0.709918,-0.004251,0.749199,0.794693,-0.037447,0.8199,0.703702,-0.014767,0.794487,0.506583,-0.023253,1,0,1
1157,'2026/05/14 11:51:57:953',5,0.772226,0.917338,-0.000001,0.656485,0.699503,-0.059962,0.703818,0.734565,0.009391,0.690864,0.821375,-0.048573,0.738376,0.720563,0.00609,0.719109,0.826752,-0.056151,0.778152,0.709704,-0.003031,0.748896,0.79525,-0.036638,0.819211,0.703548,-0.013731,0.794487,0.506554,-0.021666,1,0,1
1158,'2026/05/14 11:51:57:984',5,0.773736,0.918001,-0.000001,0.655383,0.700241,-0.057872,0.704553,0.735107,0.007979,0.691428,0.821778,-0.047982,0.738869,0.721091,0.004789,0.71922,0.826725,-0.055732,0.778384,0.709789,-0.004082,0.749028,0.7959,-0.036572,0.819101,0.70309,-0.014495,0.793643,0.505937,-0.022265,1,0,1
1159,'2026/05/14 11:51:58:014',5,0.773138,0.916314,-0.000001,0.65665,0.700139,-0.05801,0.701899,0.733852,0.007755,0.689007,0.819824,-0.047263,0.737215,0.720322,0.004922,0.717407,0.825759,-0.055986,0.777286,0.70985,-0.003563,0.746915,0.794655,-0.036509,0.818621,0.703926,-0.013618,0.793592,0.506702,-0.02359,1,0,1
1160,'2026/05/14 11:51:58:047',5,0.772653,0.916297,-0.000001,0.657284,0.699833,-0.058819,0.701874,0.73408,0.008698,0.689855,0.82022,-0.046196,0.737224,0.720247,0.005733,0.718705,0.824946,-0.055145,0.777472,0.709928,-0.002937,0.748259,0.795026,-0.036683,0.818775,0.704061,-0.013122,0.793928,0.506992,-0.021932,1,0,1
1161,'2026/05/14 11:51:58:078',5,0.772444,0.918133,-0.000001,0.655718,0.700686,-0.059882,0.701751,0.733161,0.0088,0.689902,0.819289,-0.048493,0.737038,0.719382,0.005584,0.718776,0.825597,-0.056108,0.777303,0.708565,-0.003483,0.747864,0.796492,-0.037176,0.817965,0.702365,-0.014126,0.79299,0.504424,-0.021768,1,0,1
1162,'2026/05/14 11:51:58:110',5,0.77336,0.917276,-0.000001,0.656008,0.699776,-0.058686,0.703072,0.734637,0.009531,0.691322,0.821861,-0.047806,0.737662,0.720419,0.006334,0.719408,0.826768,-0.054909,0.777572,0.709043,-0.002683,0.748909,0.794935,-0.035498,0.818676,0.702352,-0.01331,0.793369,0.505457,-0.020847,1,0,1
1163,'2026/05/14 11:51:58:142',5,0.771843,0.917519,-0.000001,0.65543,0.700102,-0.05778,0.701195,0.734587,0.008959,0.688117,0.820607,-0.04675,0.736041,0.72079,0.00527,0.716977,0.826089,-0.05552,0.776367,0.709967,-0.003959,0.746534,0.796307,-0.036778,0.817495,0.703608,-0.014663,0.793024,0.505357,-0.022218,1,0,1
1164,'2026/05/14 11:51:58:174',5,0.773442,0.920267,-0.000001,0.654916,0.699436,-0.057179,0.702791,0.735553,0.011614,0.687746,0.821272,-0.046356,0.737032,0.721369,0.007929,0.716362,0.826054,-0.054664,0.776847,0.709729,-0.001569,0.74695,0.796022,-0.034652,0.817924,0.702812,-0.012632,0.791089,0.504393,-0.019279,1,0,1
1165,'2026/05/14 11:51:58:223',5,0.772143,0.917348,-0.000001,0.655239,0.699991,-0.057139,0.703939,0.734051,0.009385,0.689298,0.821026,-0.046628,0.738161,0.720377,0.00591,0.717726,0.826194,-0.0543,0.777907,0.709409,-0.003309,0.748055,0.795033,-0.035399,0.818599,0.703092,-0.014101,0.7925,0.506045,-0.021323,1,0,1
1166,'2026/05/14 11:51:58:253',5,0.773317,0.91974,-0.000001,0.655259,0.699834,-0.058169,0.701487,0.733356,0.007981,0.689297,0.819992,-0.048145,0.736658,0.719993,0.004521,0.717856,0.82627,-0.056444,0.7771,0.709296,-0.004601,0.747737,0.796736,-0.037359,0.818052,0.703145,-0.015239,0.792534,0.50453,-0.023151,1,0,1
1167,'2026/05/14 11:51:58:287',5,0.772478,0.918786,-0.000001,0.655881,0.701078,-0.057262,0.702951,0.73526,0.009212,0.690724,0.820111,-0.047712,0.737368,0.721806,0.005612,0.719531,0.824901,-0.055914,0.777347,0.71084,-0.003624,0.748217,0.795806,-0.036568,0.81805,0.704159,-0.014351,0.792966,0.504918,-0.021518,1,0,1
1168,'2026/05/14 11:51:58:317',5,0.77336,0.91532,-0.000001,0.657039,0.700411,-0.059017,0.703938,0.733216,0.007508,0.690641,0.820768,-0.04789,0.738838,0.719403,0.00429,0.718977,0.826161,-0.056425,0.778924,0.708984,-0.004588,0.748342,0.794573,-0.037581,0.819711,0.703093,-0.015017,0.794446,0.506062,-0.023707,1,0,1
1169,'2026/05/14 11:51:58:347',5,0.774267,0.916034,-0.000001,0.656049,0.699996,-0.057059,0.704069,0.733214,0.008403,0.690992,0.821075,-0.047643,0.738645,0.719752,0.00488,0.719201,0.826722,-0.055452,0.778781,0.7093,-0.004348,0.750014,0.795656,-0.036469,0.82014,0.70334,-0.015161,0.794431,0.504608,-0.023467,1,0,1
1170,'2026/05/14 11:51:58:381',5,0.774541,0.914845,-0.000001,0.656383,0.700848,-0.060849,0.701788,0.733543,0.006871,0.691156,0.821769,-0.048738,0.737647,0.719392,0.004284,0.719456,0.827278,-0.05719,0.778301,0.709056,-0.004134,0.748967,0.797498,-0.039058,0.819661,0.702897,-0.014133,0.793999,0.504795,-0.024601,1,0,1
1171,'2026/05/14 11:51:58:420',5,0.773995,0.914416,-0.000001,0.655995,0.702655,-0.060948,0.701388,0.734189,0.006037,0.691076,0.821536,-0.04881,0.736887,0.719889,0.00304,0.719277,0.82565,-0.057486,0.777257,0.709764,-0.00566,0.748764,0.795562,-0.03989,0.818574,0.703822,-0.015903,0.793772,0.504672,-0.026103,1,0,1
1172,'2026/05/14 11:51:58:452',5,0.773918,0.916682,-0.000001,0.655862,0.702722,-0.05915,0.702537,0.734883,0.008171,0.690797,0.822519,-0.049074,0.737486,0.720415,0.004677,0.719479,0.828571,-0.056366,0.777793,0.709319,-0.004537,0.749544,0.79601,-0.037694,0.8191,0.702685,-0.01529,0.792944,0.504979,-0.023601,1,0,1
1173,'2026/05/14 11:51:58:483',5,0.774676,0.91877,-0.000001,0.654168,0.705196,-0.059389,0.703907,0.734688,0.007953,0.690783,0.822388,-0.049044,0.738574,0.720875,0.004249,0.719325,0.827975,-0.056728,0.778695,0.709733,-0.00521,0.750101,0.797361,-0.038805,0.81961,0.702932,-0.016137,0.792743,0.504379,-0.023083,1,0,1
1174,'2026/05/14 11:51:58:516',5,0.773601,0.919735,-0.000001,0.654831,0.703963,-0.060499,0.700553,0.733584,0.00839,0.688498,0.820764,-0.050249,0.736331,0.720255,0.004537,0.718093,0.827004,-0.058232,0.777311,0.709705,-0.005117,0.747978,0.798544,-0.039676,0.818566,0.703298,-0.016267,0.790823,0.504538,-0.023534,1,0,1
1175,'2026/05/14 11:51:58:547',5,0.775018,0.917736,-0.000001,0.654822,0.704922,-0.059015,0.700857,0.735371,0.007898,0.689144,0.820599,-0.047704,0.736056,0.721227,0.004447,0.719048,0.826695,-0.056371,0.776591,0.710103,-0.004571,0.748462,0.796104,-0.037587,0.817714,0.703409,-0.015073,0.792667,0.503678,-0.022813,1,0,1
1176,'2026/05/14 11:51:58:577',5,0.77378,0.916447,-0.000001,0.6557,0.704429,-0.063249,0.699326,0.733178,0.006324,0.690051,0.82134,-0.049909,0.735483,0.719272,0.003593,0.720135,0.825855,-0.057275,0.776109,0.70891,-0.005015,0.748747,0.798155,-0.039247,0.816984,0.702889,-0.015201,0.792162,0.504327,-0.023479,1,0,1
1177,'2026/05/14 11:51:58:625',5,0.774493,0.922324,-0.000001,0.655224,0.703314,-0.057066,0.701261,0.735272,0.011577,0.689148,0.822357,-0.046852,0.73636,0.721196,0.007157,0.718452,0.828071,-0.055088,0.776873,0.709626,-0.003069,0.748215,0.799955,-0.037505,0.818066,0.702217,-0.014661,0.790653,0.503599,-0.020395,1,0,1
1178,'2026/05/14 11:51:58:657',5,0.774931,0.921067,-0.000001,0.654721,0.703898,-0.05996,0.700449,0.734733,0.008358,0.68961,0.821041,-0.048921,0.735898,0.720727,0.005041,0.719251,0.826981,-0.056715,0.776496,0.709627,-0.004147,0.748179,0.798376,-0.038225,0.817303,0.702774,-0.014886,0.790429,0.503319,-0.022899,1,0,1
1179,'2026/05/14 11:51:58:687',5,0.773089,0.920491,-0.000001,0.65373,0.704396,-0.058753,0.701634,0.733469,0.010853,0.688171,0.822685,-0.048137,0.736651,0.719711,0.006478,0.716704,0.828678,-0.055858,0.777111,0.708902,-0.00377,0.747944,0.799592,-0.038569,0.818356,0.70238,-0.015392,0.789972,0.503109,-0.02174,1,0,1
1180,'2026/05/14 11:51:58:719',5,0.774884,0.919486,-0.000001,0.653609,0.705282,-0.058808,0.704484,0.736114,0.009457,0.690086,0.824086,-0.049232,0.738336,0.721828,0.005828,0.718791,0.829336,-0.055996,0.777767,0.710183,-0.003749,0.749116,0.798529,-0.037387,0.818287,0.702822,-0.014858,0.790156,0.505824,-0.021314,1,0,1
1181,'2026/05/14 11:51:58:752',5,0.771661,0.917934,-0.000001,0.653063,0.706615,-0.059014,0.702223,0.734443,0.007407,0.687954,0.823768,-0.049649,0.737002,0.721014,0.003537,0.717669,0.829568,-0.056948,0.777197,0.710535,-0.006141,0.748207,0.798904,-0.039706,0.818393,0.704207,-0.017298,0.790703,0.50557,-0.025608,1,0,1
1182,'2026/05/14 11:51:58:783',5,0.772292,0.916549,-0.000001,0.653093,0.705967,-0.058584,0.702391,0.734036,0.008061,0.688942,0.823645,-0.049796,0.736972,0.720982,0.004374,0.718422,0.829107,-0.056353,0.777076,0.71073,-0.005188,0.74885,0.799959,-0.038731,0.818203,0.704338,-0.016276,0.790428,0.504809,-0.024337,1,0,1
1183,'2026/05/14 11:51:58:814',5,0.771381,0.917621,-0.000001,0.653009,0.705923,-0.062695,0.700447,0.732614,0.007564,0.687625,0.821294,-0.052793,0.735649,0.719314,0.00351,0.716824,0.8288,-0.060075,0.776086,0.709025,-0.00643,0.747692,0.800531,-0.042725,0.817562,0.70264,-0.017835,0.790884,0.504195,-0.026136,1,0,1
1184,'2026/05/14 11:51:58:847',5,0.773381,0.919647,-0.000001,0.65518,0.706516,-0.059086,0.702809,0.731459,0.009926,0.687898,0.81985,-0.049659,0.737567,0.718751,0.005022,0.717811,0.827099,-0.057742,0.777649,0.708975,-0.005747,0.748652,0.799328,-0.041273,0.818805,0.703101,-0.017864,0.792784,0.505968,-0.024626,1,0,1
1185,'2026/05/14 11:51:58:880',5,0.773608,0.917504,-0.000001,0.656792,0.705214,-0.060538,0.705521,0.731593,0.008315,0.691424,0.819385,-0.050182,0.740379,0.719519,0.004208,0.721011,0.827641,-0.05898,0.780521,0.709893,-0.005801,0.751312,0.800613,-0.042719,0.822019,0.703787,-0.017231,0.795644,0.505949,-0.025476,1,0,1
1186,'2026/05/14 11:51:58:909',5,0.77695,0.917085,-0.000001,0.660159,0.705652,-0.057482,0.708667,0.730819,0.01033,0.693314,0.819702,-0.046613,0.743143,0.719028,0.004989,0.725029,0.824968,-0.057169,0.783203,0.709481,-0.00607,0.755194,0.7963,-0.040764,0.824161,0.703746,-0.018492,0.799695,0.508104,-0.024651,1,0,1
1187,'2026/05/14 11:51:58:942',5,0.779342,0.91891,-0.000001,0.664422,0.702695,-0.059571,0.713173,0.731997,0.011257,0.697017,0.81785,-0.046227,0.747136,0.720576,0.005781,0.727834,0.8249,-0.058139,0.787159,0.711134,-0.005438,0.759006,0.79801,-0.041557,0.828796,0.705543,-0.01803,0.805125,0.508799,-0.023729,1,0,1
1188,'2026/05/14 11:51:58:975',5,0.783427,0.919107,-0.000001,0.669945,0.699749,-0.054785,0.718478,0.730279,0.015972,0.701699,0.81479,-0.042127,0.752105,0.71962,0.009567,0.732733,0.823297,-0.055205,0.79189,0.710065,-0.002543,0.763933,0.796692,-0.038541,0.8335,0.704259,-0.015884,0.809822,0.511092,-0.018823,1,0,1
1189,'2026/05/14 11:51:59:023',5,0.788328,0.919586,-0.000001,0.676332,0.696901,-0.050557,0.724264,0.729221,0.020189,0.705073,0.811896,-0.036999,0.756914,0.719613,0.011767,0.735741,0.822523,-0.053429,0.795667,0.710353,-0.002105,0.769448,0.798172,-0.037476,0.836651,0.705285,-0.017024,0.814563,0.511155,-0.016746,1,0,1
1190,'2026/05/14 11:51:59:055',5,0.793219,0.919778,-0.000001,0.681995,0.692799,-0.049952,0.730796,0.725991,0.021448,0.713209,0.807216,-0.033936,0.763054,0.718521,0.012488,0.741242,0.819193,-0.050155,0.801352,0.710617,-0.001725,0.771535,0.79775,-0.036677,0.841295,0.706226,-0.016821,0.81934,0.51256,-0.014853,1,0,1
1191,'2026/05/14 11:51:59:085',5,0.795422,0.916979,-0.000001,0.687438,0.692751,-0.054633,0.73589,0.725519,0.018289,0.715392,0.804251,-0.037023,0.768316,0.718803,0.010654,0.7439,0.816758,-0.051369,0.806277,0.712694,-0.002525,0.775572,0.798217,-0.03818,0.845627,0.709792,-0.016747,0.823424,0.516438,-0.016759,1,0,1
1192,'2026/05/14 11:51:59:117',5,0.79716,0.914935,-0.000001,0.689155,0.694902,-0.055098,0.73615,0.730372,0.011695,0.718528,0.810831,-0.042167,0.76856,0.720716,0.005458,0.747713,0.818146,-0.053388,0.807042,0.712361,-0.006034,0.779593,0.794137,-0.0393,0.847467,0.707737,-0.018717,0.829354,0.515872,-0.020904,1,0,1
1193,'2026/05/14 11:51:59:150',5,0.801052,0.916373,-0.000001,0.691172,0.695198,-0.050054,0.740531,0.7293,0.014644,0.720978,0.806956,-0.036725,0.772058,0.720183,0.007565,0.749406,0.815194,-0.050143,0.80961,0.712693,-0.004712,0.781241,0.796153,-0.037076,0.849128,0.708915,-0.018055,0.828205,0.515394,-0.019245,1,0,1
1194,'2026/05/14 11:51:59:183',5,0.801385,0.915184,-0.000001,0.691674,0.697127,-0.047463,0.738673,0.729887,0.015503,0.719361,0.805011,-0.03271,0.77136,0.720125,0.008158,0.748993,0.815863,-0.048493,0.80972,0.712099,-0.004101,0.781735,0.795697,-0.035873,0.849566,0.708198,-0.017365,0.829796,0.515151,-0.01851,1,0,1
1195,'2026/05/14 11:51:59:226',5,0.800435,0.916029,-0.000001,0.692377,0.694261,-0.052154,0.740352,0.728424,0.017829,0.720104,0.805387,-0.035466,0.772803,0.720125,0.010551,0.748985,0.815125,-0.049498,0.810812,0.712855,-0.002156,0.780608,0.795627,-0.035843,0.850625,0.709294,-0.015962,0.82837,0.516509,-0.015605,1,0,1
1196,'2026/05/14 11:51:59:255',5,0.798195,0.910684,-0.000001,0.691864,0.694897,-0.053058,0.735976,0.727345,0.014823,0.717015,0.805575,-0.038519,0.769851,0.718084,0.008628,0.747458,0.815554,-0.051631,0.80929,0.710157,-0.003169,0.781872,0.793958,-0.038731,0.850531,0.705588,-0.016069,0.830782,0.513963,-0.019756,1,0,1
1197,'2026/05/14 11:51:59:286',5,0.798837,0.911471,-0.000001,0.689977,0.695163,-0.05229,0.738619,0.72998,0.012897,0.719912,0.808465,-0.039727,0.770751,0.720018,0.007227,0.748613,0.81649,-0.05102,0.808929,0.711306,-0.003888,0.780689,0.792996,-0.037599,0.849122,0.706027,-0.016139,0.831053,0.513808,-0.019517,1,0,1
1198,'2026/05/14 11:51:59:315',5,0.798391,0.913546,-0.000001,0.688955,0.694248,-0.054244,0.738026,0.728833,0.012177,0.719518,0.809282,-0.040509,0.770302,0.719567,0.006309,0.747887,0.816183,-0.052662,0.808485,0.711617,-0.004947,0.779482,0.793588,-0.038859,0.848652,0.707429,-0.017394,0.829524,0.513551,-0.020026,1,0,1
1199,'2026/05/14 11:51:59:347',5,0.796379,0.913718,-0.000001,0.688814,0.692903,-0.052102,0.737014,0.727448,0.014589,0.718027,0.809705,-0.040532,0.769098,0.718627,0.007812,0.746489,0.818125,-0.052211,0.807519,0.710809,-0.004354,0.778995,0.793994,-0.039307,0.848153,0.706125,-0.017581,0.829586,0.511847,-0.019849,1,0,1
1200,'2026/05/14 11:51:59:380',5,0.796174,0.914126,-0.000001,0.687229,0.694896,-0.049031,0.737637,0.729209,0.01721,0.714859,0.808742,-0.03531,0.769398,0.720107,0.009725,0.743823,0.817668,-0.04942,0.807327,0.711683,-0.00298,0.776376,0.796893,-0.036238,0.847037,0.706592,-0.016645,0.826926,0.512071,-0.016131,1,0,1
1201,'2026/05/14 11:51:59:422',5,0.795526,0.914315,-0.000001,0.687469,0.696207,-0.052543,0.732645,0.72641,0.014757,0.711465,0.806581,-0.038675,0.766376,0.717491,0.007878,0.741772,0.817098,-0.052502,0.805906,0.710207,-0.004575,0.777418,0.796402,-0.03926,0.847054,0.706695,-0.01815,0.827007,0.510306,-0.021476,1,0,1
1202,'2026/05/14 11:51:59:457',5,0.793483,0.912635,-0.000001,0.6853,0.695057,-0.051485,0.733452,0.726969,0.01375,0.714222,0.8095,-0.038144,0.766405,0.717298,0.007202,0.743624,0.818709,-0.051974,0.805218,0.708908,-0.004728,0.77622,0.793502,-0.039543,0.845728,0.703966,-0.017691,0.824891,0.511105,-0.021081,1,0,1
1203,'2026/05/14 11:51:59:489',5,0.792452,0.912426,-0.000001,0.684278,0.695409,-0.053187,0.732188,0.727898,0.013572,0.713318,0.809844,-0.040329,0.765177,0.718515,0.007318,0.742732,0.818908,-0.054002,0.804419,0.711013,-0.004447,0.775959,0.793802,-0.040515,0.845603,0.706942,-0.017302,0.825827,0.51215,-0.022088,1,0,1
1204,'2026/05/14 11:51:59:520',5,0.792784,0.914509,-0.000001,0.683591,0.696027,-0.052349,0.732592,0.729174,0.012933,0.713393,0.810482,-0.040028,0.765433,0.719372,0.006601,0.742304,0.818211,-0.052861,0.804214,0.711299,-0.005212,0.775783,0.794913,-0.040157,0.8448,0.706858,-0.018159,0.823871,0.510344,-0.022946,1,0,1
1205,'2026/05/14 11:51:59:551',5,0.792561,0.914822,-0.000001,0.683613,0.69594,-0.054608,0.733452,0.728513,0.012159,0.713812,0.811935,-0.041549,0.765581,0.719406,0.00594,0.742293,0.819714,-0.053584,0.803827,0.711497,-0.005771,0.775178,0.796717,-0.040239,0.844022,0.707078,-0.01863,0.823936,0.509999,-0.021882,1,0,1
1206,'2026/05/14 11:51:59:583',5,0.793331,0.915191,-0.000001,0.683981,0.696893,-0.052564,0.732948,0.728227,0.013885,0.711613,0.810027,-0.03819,0.765249,0.718951,0.007211,0.740667,0.81887,-0.051879,0.803549,0.711158,-0.004907,0.774221,0.796201,-0.038935,0.843463,0.707032,-0.018092,0.823237,0.510212,-0.020681,1,0,1
1207,'2026/05/14 11:51:59:614',5,0.792962,0.913748,-0.000001,0.683933,0.696798,-0.055336,0.73138,0.728041,0.01236,0.711971,0.810917,-0.040557,0.764428,0.7187,0.006325,0.741751,0.819425,-0.053843,0.803248,0.710567,-0.005273,0.775666,0.794639,-0.040819,0.843773,0.706093,-0.01805,0.822778,0.510493,-0.022109,1,0,1
1208,'2026/05/14 11:51:59:646',5,0.79333,0.914626,-0.000001,0.683725,0.697555,-0.05592,0.731587,0.727482,0.012113,0.710463,0.809463,-0.040525,0.764846,0.717853,0.005892,0.740762,0.818696,-0.053782,0.80382,0.709756,-0.005921,0.775159,0.795326,-0.040728,0.844358,0.705426,-0.018895,0.821747,0.509989,-0.023033,1,0,1
1209,'2026/05/14 11:51:59:679',5,0.792126,0.915166,-0.000001,0.683048,0.696213,-0.055793,0.732421,0.72675,0.01217,0.712364,0.810689,-0.041643,0.764953,0.718092,0.005774,0.740578,0.819172,-0.05431,0.803184,0.710829,-0.006204,0.773834,0.797069,-0.041868,0.84318,0.707001,-0.0193,0.822169,0.50935,-0.023885,1,0,1
1210,'2026/05/14 11:51:59:709',5,0.792194,0.913688,-0.000001,0.68308,0.697024,-0.054104,0.728459,0.727977,0.012669,0.710185,0.80925,-0.04009,0.762447,0.718203,0.006295,0.740261,0.818714,-0.054123,0.802126,0.709986,-0.005627,0.774729,0.796865,-0.042137,0.843569,0.705187,-0.0186,0.821373,0.509583,-0.024158,1,0,1
1211,'2026/05/14 11:51:59:742',5,0.791935,0.915715,-0.000001,0.682222,0.697214,-0.056339,0.731698,0.727378,0.012901,0.712398,0.811566,-0.042302,0.76435,0.718799,0.006377,0.740238,0.819625,-0.054459,0.802561,0.711281,-0.005747,0.773079,0.796839,-0.041054,0.842462,0.707465,-0.019036,0.821209,0.510388,-0.022244,1,0,1
1212,'2026/05/14 11:51:59:774',5,0.79248,0.918451,-0.000001,0.683335,0.696704,-0.054019,0.733526,0.726781,0.015374,0.713664,0.808549,-0.040239,0.765584,0.719286,0.008453,0.739956,0.818883,-0.052844,0.803243,0.712534,-0.004131,0.77237,0.801471,-0.039872,0.842786,0.70904,-0.01781,0.819334,0.512963,-0.01977,1,0,1
1213,'2026/05/14 11:51:59:825',5,0.792518,0.916129,-0.000001,0.681615,0.697721,-0.056634,0.730456,0.726151,0.014307,0.712149,0.810536,-0.042166,0.763496,0.718758,0.007702,0.74006,0.819599,-0.055294,0.80207,0.711852,-0.004669,0.773637,0.798707,-0.042047,0.842351,0.708229,-0.018183,0.818887,0.511677,-0.021349,1,0,1
1214,'2026/05/14 11:51:59:854',5,0.792104,0.917053,-0.000001,0.682215,0.697785,-0.05289,0.73185,0.728443,0.016294,0.712741,0.809695,-0.038877,0.764065,0.720588,0.009045,0.739999,0.819508,-0.052691,0.801937,0.713052,-0.003745,0.77274,0.800233,-0.039589,0.841832,0.70878,-0.017603,0.818105,0.512613,-0.019432,1,0,1
1215,'2026/05/14 11:51:59:886',5,0.790471,0.915445,-0.000001,0.682411,0.697582,-0.05741,0.729894,0.725858,0.011679,0.710902,0.80867,-0.043477,0.762746,0.718278,0.005253,0.739237,0.818995,-0.055975,0.801171,0.711585,-0.006736,0.773351,0.79798,-0.042426,0.84113,0.708397,-0.019872,0.819291,0.512679,-0.02354,1,0,1
1216,'2026/05/14 11:51:59:917',5,0.791117,0.915507,-0.000001,0.680802,0.69853,-0.05251,0.730507,0.729182,0.014934,0.711448,0.810921,-0.039336,0.763123,0.720088,0.008218,0.739936,0.819858,-0.052796,0.801355,0.711887,-0.004043,0.772997,0.797823,-0.040652,0.841487,0.706903,-0.017322,0.818953,0.510962,-0.02107,1,0,1
1217,'2026/05/14 11:51:59:950',5,0.790665,0.913949,-0.000001,0.680949,0.697422,-0.050532,0.727159,0.72923,0.013247,0.708595,0.809252,-0.038675,0.760746,0.719535,0.006662,0.737508,0.81983,-0.052509,0.800023,0.711521,-0.005284,0.772673,0.799046,-0.040448,0.841098,0.707176,-0.018263,0.817807,0.511503,-0.023619,1,0,1
1218,'2026/05/14 11:51:59:982',5,0.789319,0.915374,-0.000001,0.680612,0.698477,-0.053923,0.726978,0.729029,0.012812,0.707056,0.809233,-0.040374,0.760109,0.719704,0.00645,0.736226,0.819036,-0.053772,0.798936,0.711982,-0.005496,0.771004,0.79803,-0.041527,0.839487,0.707803,-0.018542,0.817229,0.512983,-0.023659,1,0,1
1219,'2026/05/14 11:52:00:014',5,0.789106,0.913047,-0.000001,0.679263,0.697552,-0.055031,0.725138,0.728564,0.011857,0.706102,0.810698,-0.041913,0.758912,0.718843,0.006,0.735232,0.820374,-0.054376,0.798102,0.710776,-0.005532,0.770531,0.797968,-0.041312,0.839039,0.706416,-0.018254,0.816732,0.511834,-0.02404,1,0,1
1220,'2026/05/14 11:52:00:053',5,0.789493,0.916259,-0.000001,0.677978,0.695933,-0.052661,0.72479,0.729952,0.015034,0.707045,0.81063,-0.0412,0.758556,0.719745,0.008451,0.736014,0.820994,-0.053698,0.797905,0.71112,-0.003764,0.769681,0.798656,-0.039516,0.838905,0.70636,-0.017083,0.813956,0.51241,-0.021992,1,0,1
1221,'2026/05/14 11:52:00:083',5,0.789607,0.914653,-0.000001,0.677101,0.696589,-0.053362,0.72539,0.731355,0.013886,0.707531,0.811508,-0.041107,0.758459,0.72055,0.008093,0.736089,0.820573,-0.053305,0.797265,0.711556,-0.003364,0.769592,0.795717,-0.03883,0.83795,0.706544,-0.016044,0.813071,0.512887,-0.02148,1,0,1
1222,'2026/05/14 11:52:00:115',5,0.7891,0.914146,-0.000001,0.677208,0.698702,-0.052737,0.724143,0.732116,0.012117,0.707745,0.81305,-0.041783,0.758332,0.721046,0.006927,0.73562,0.821979,-0.053582,0.797841,0.711835,-0.003781,0.768472,0.797161,-0.038891,0.839039,0.706728,-0.015674,0.813504,0.510846,-0.022847,1,0,1
1223,'2026/05/14 11:52:00:146',5,0.788388,0.913821,-0.000001,0.676543,0.696306,-0.054089,0.723994,0.7303,0.013354,0.705551,0.811237,-0.042233,0.757325,0.719497,0.007395,0.735039,0.821394,-0.054286,0.796441,0.710383,-0.004178,0.769127,0.796804,-0.039332,0.837274,0.705307,-0.01696,0.812247,0.51157,-0.022311,1,0,1
1224,'2026/05/14 11:52:00:178',5,0.788199,0.915877,-0.000001,0.676857,0.696229,-0.054259,0.725199,0.729265,0.013539,0.707077,0.811349,-0.043144,0.758166,0.719319,0.007388,0.734833,0.821335,-0.054845,0.796951,0.71092,-0.004463,0.76849,0.797796,-0.04062,0.837338,0.706366,-0.017488,0.81189,0.511928,-0.023176,1,0,1
1225,'2026/05/14 11:52:00:225',5,0.7878,0.916386,-0.000001,0.678335,0.698296,-0.052954,0.724792,0.729443,0.01269,0.704771,0.809291,-0.04106,0.75779,0.720518,0.005955,0.733903,0.820646,-0.054596,0.796748,0.712883,-0.006309,0.769432,0.799683,-0.04107,0.837335,0.708791,-0.019692,0.812118,0.512003,-0.024607,1,0,1
1226,'2026/05/14 11:52:00:257',5,0.787172,0.915125,-0.000001,0.676069,0.69784,-0.050297,0.724395,0.731215,0.015105,0.70593,0.812609,-0.040005,0.756838,0.720993,0.008526,0.734613,0.821972,-0.052642,0.79557,0.712225,-0.003645,0.768579,0.797639,-0.038909,0.836256,0.707055,-0.01691,0.81151,0.512555,-0.021434,1,0,1
1227,'2026/05/14 11:52:00:287',5,0.786955,0.912813,-0.000001,0.677001,0.69968,-0.05295,0.723183,0.729823,0.012108,0.705366,0.810603,-0.040554,0.756301,0.720059,0.005903,0.734133,0.820601,-0.053702,0.795084,0.711756,-0.005879,0.76886,0.798983,-0.04135,0.835666,0.706807,-0.018743,0.81142,0.513577,-0.024317,1,0,1
1228,'2026/05/14 11:52:00:319',5,0.786779,0.914022,-0.000001,0.677368,0.699729,-0.054594,0.722688,0.729875,0.010716,0.704741,0.811626,-0.042563,0.755549,0.720406,0.004787,0.734287,0.821367,-0.054707,0.794363,0.712304,-0.006759,0.769008,0.799255,-0.041845,0.834886,0.707646,-0.019473,0.809796,0.513145,-0.024954,1,0,1
1229,'2026/05/14 11:52:00:350',5,0.784423,0.913614,-0.000001,0.675345,0.69914,-0.050673,0.721284,0.73115,0.013107,0.702494,0.811704,-0.041392,0.754823,0.721089,0.006661,0.731866,0.821217,-0.053976,0.794026,0.712122,-0.005152,0.766306,0.798437,-0.040576,0.835093,0.706713,-0.018015,0.809457,0.51174,-0.023936,1,0,1
1230,'2026/05/14 11:52:00:381',5,0.785519,0.913561,-0.000001,0.675594,0.698673,-0.051842,0.721028,0.730029,0.012242,0.702236,0.810562,-0.040595,0.754691,0.720054,0.006069,0.731379,0.820712,-0.053398,0.793977,0.711608,-0.005569,0.765773,0.799268,-0.04051,0.835198,0.706653,-0.018298,0.808984,0.511725,-0.024332,1,0,1
1231,'2026/05/14 11:52:00:413',5,0.784868,0.913936,-0.000001,0.674755,0.699016,-0.054628,0.720147,0.731055,0.011341,0.702408,0.813002,-0.043464,0.754012,0.72014,0.005766,0.731477,0.823302,-0.054827,0.793444,0.711143,-0.005402,0.765684,0.799043,-0.040712,0.834602,0.706094,-0.017749,0.808655,0.511324,-0.024993,1,0,1
1232,'2026/05/14 11:52:00:445',5,0.784329,0.913774,-0.000001,0.675604,0.699234,-0.053635,0.720529,0.730482,0.009086,0.7032,0.811935,-0.042645,0.753936,0.72022,0.003567,0.732137,0.821255,-0.054942,0.792868,0.712139,-0.007416,0.766552,0.798838,-0.042581,0.833728,0.707734,-0.019536,0.808378,0.511561,-0.02761,1,0,1
1233,'2026/05/14 11:52:00:479',5,0.785301,0.913157,-0.000001,0.674043,0.700157,-0.05356,0.719734,0.73119,0.010661,0.701977,0.811834,-0.042299,0.7534,0.720709,0.004872,0.731097,0.820896,-0.054966,0.792804,0.711961,-0.006375,0.766021,0.798691,-0.042371,0.834184,0.706853,-0.018735,0.808811,0.511214,-0.026256,1,0,1
1234,'2026/05/14 11:52:00:510',5,0.785058,0.913048,-0.000001,0.674335,0.698506,-0.053036,0.719671,0.730284,0.011776,0.702604,0.812065,-0.041376,0.753733,0.7197,0.006054,0.732148,0.821161,-0.053866,0.793135,0.710896,-0.005167,0.766539,0.797226,-0.040651,0.834166,0.705912,-0.01753,0.808945,0.511722,-0.024293,1,0,1
1235,'2026/05/14 11:52:00:540',5,0.786988,0.915816,-0.000001,0.675817,0.699336,-0.050709,0.722798,0.732153,0.012388,0.704236,0.812098,-0.039646,0.755601,0.722109,0.00585,0.732623,0.821551,-0.053327,0.794218,0.713655,-0.006106,0.767758,0.800872,-0.041173,0.834738,0.708763,-0.019132,0.80887,0.512052,-0.025209,1,0,1
1236,'2026/05/14 11:52:00:576',5,0.784243,0.915267,-0.000001,0.676001,0.701261,-0.05444,0.720846,0.728437,0.010932,0.701898,0.811037,-0.041679,0.754075,0.719475,0.004577,0.731041,0.821573,-0.054843,0.793082,0.712027,-0.007308,0.766507,0.800625,-0.042017,0.833654,0.708306,-0.020333,0.809016,0.5133,-0.025495,1,0,1
1237,'2026/05/14 11:52:00:627',5,0.784522,0.912166,-0.000001,0.674643,0.700283,-0.051449,0.720719,0.731809,0.013184,0.702783,0.813022,-0.039477,0.753813,0.720956,0.006952,0.732798,0.822095,-0.052791,0.79284,0.711596,-0.004693,0.767269,0.796419,-0.040015,0.833858,0.705944,-0.017391,0.808717,0.511818,-0.022652,1,0,1
1238,'2026/05/14 11:52:00:663',5,0.784769,0.915996,-0.000001,0.675131,0.69936,-0.052562,0.721212,0.731307,0.012,0.703263,0.811441,-0.041163,0.754378,0.721601,0.00585,0.731626,0.821277,-0.054126,0.79319,0.713358,-0.005777,0.765959,0.799241,-0.040751,0.833655,0.708826,-0.018525,0.809232,0.514278,-0.025058,1,0,1
1239,'2026/05/14 11:52:00:694',5,0.785246,0.913573,-0.000001,0.675282,0.699717,-0.051642,0.720808,0.730826,0.012626,0.70177,0.811349,-0.039153,0.754065,0.720903,0.006271,0.731796,0.820274,-0.052879,0.792977,0.712502,-0.005574,0.767181,0.799045,-0.040548,0.833481,0.707514,-0.018496,0.808659,0.514161,-0.024019,1,0,1
1240,'2026/05/14 11:52:00:727',5,0.785379,0.914601,-0.000001,0.675082,0.700309,-0.050823,0.721222,0.730919,0.0106,0.7035,0.811686,-0.038889,0.75444,0.721167,0.004376,0.73233,0.821527,-0.053162,0.793411,0.713401,-0.007165,0.767681,0.799704,-0.040943,0.834147,0.70943,-0.019825,0.808955,0.51445,-0.026281,1,0,1
1241,'2026/05/14 11:52:00:757',5,0.786346,0.91607,-0.000001,0.675656,0.697975,-0.053115,0.722838,0.729722,0.013435,0.703744,0.811122,-0.041088,0.756112,0.719907,0.007489,0.732357,0.821177,-0.053213,0.794764,0.711895,-0.004111,0.766145,0.799431,-0.040049,0.834807,0.707714,-0.016872,0.809373,0.51354,-0.023334,1,0,1
1242,'2026/05/14 11:52:00:788',5,0.786354,0.911965,-0.000001,0.677031,0.698481,-0.051441,0.722709,0.729957,0.013377,0.705374,0.809996,-0.039449,0.755725,0.720036,0.007396,0.734318,0.818981,-0.051996,0.794387,0.71161,-0.004124,0.768721,0.796021,-0.039681,0.834646,0.706787,-0.016709,0.810287,0.51426,-0.022726,1,0,1
1243,'2026/05/14 11:52:00:819',5,0.785821,0.91455,-0.000001,0.677476,0.69876,-0.05013,0.72463,0.729907,0.015372,0.704762,0.809628,-0.038288,0.756798,0.720555,0.008129,0.733011,0.820175,-0.052362,0.794957,0.712628,-0.004509,0.767053,0.799028,-0.040383,0.834895,0.708229,-0.0181,0.810239,0.513691,-0.022384,1,0,1
1244,'2026/05/14 11:52:00:850',5,0.787028,0.916423,-0.000001,0.676816,0.697729,-0.050387,0.724831,0.730818,0.016405,0.704343,0.810342,-0.038694,0.757282,0.721275,0.009316,0.732851,0.820685,-0.052145,0.79565,0.713013,-0.003255,0.766641,0.79854,-0.038425,0.835868,0.708651,-0.016897,0.809427,0.514315,-0.02103,1,0,1
1245,'2026/05/14 11:52:00:881',5,0.786505,0.914001,-0.000001,0.676779,0.69932,-0.04803,0.724923,0.732031,0.014957,0.704453,0.810687,-0.037779,0.756823,0.722106,0.007979,0.733565,0.820094,-0.051438,0.794983,0.713309,-0.00431,0.767633,0.797435,-0.038696,0.834909,0.708022,-0.017569,0.809279,0.515249,-0.021576,1,0,1
1246,'2026/05/14 11:52:00:913',5,0.78559,0.915196,-0.000001,0.677356,0.700347,-0.051931,0.723867,0.727638,0.01336,0.70636,0.809688,-0.040005,0.756403,0.719439,0.006254,0.733829,0.820994,-0.053925,0.794671,0.71255,-0.006276,0.767736,0.801697,-0.041181,0.834501,0.709219,-0.019856,0.809323,0.514941,-0.023836,1,0,1
1247,'2026/05/14 11:52:00:943',5,0.786647,0.913721,-0.000001,0.676816,0.700998,-0.05165,0.723203,0.727412,0.012903,0.704813,0.807605,-0.038605,0.755918,0.719029,0.005848,0.733536,0.819023,-0.053228,0.794222,0.711905,-0.006463,0.768218,0.799526,-0.040821,0.834036,0.70836,-0.019821,0.808983,0.514436,-0.024009,1,0,1
1248,'2026/05/14 11:52:00:975',5,0.785432,0.9155,-0.000001,0.675517,0.698395,-0.052058,0.722548,0.730187,0.014029,0.703553,0.810608,-0.040463,0.755085,0.720742,0.007195,0.731999,0.820965,-0.054437,0.79359,0.71286,-0.005111,0.76615,0.798594,-0.041395,0.833856,0.7087,-0.01846,0.808181,0.513807,-0.023999,1,0,1
1249,'2026/05/14 11:52:01:026',5,0.785313,0.913124,-0.000001,0.676188,0.700352,-0.052356,0.721566,0.730628,0.011901,0.702865,0.810896,-0.039446,0.754546,0.720901,0.005715,0.732018,0.820439,-0.052936,0.793217,0.712661,-0.005931,0.766563,0.799011,-0.040633,0.833587,0.707967,-0.018664,0.808524,0.514551,-0.024348,1,0,1
1250,'2026/05/14 11:52:01:055',5,0.786731,0.915361,-0.000001,0.676314,0.700485,-0.050611,0.722973,0.730356,0.01329,0.704494,0.809664,-0.038419,0.755547,0.721075,0.006129,0.733286,0.820616,-0.053013,0.793943,0.713234,-0.00631,0.768356,0.800682,-0.040626,0.834088,0.70898,-0.019789,0.808911,0.514946,-0.024155,1,0,1
1251,'2026/05/14 11:52:01:088',5,0.786282,0.915888,-0.000001,0.676942,0.699508,-0.052125,0.724027,0.729649,0.01401,0.705187,0.810758,-0.040137,0.756086,0.721189,0.006944,0.733539,0.821143,-0.054141,0.794121,0.713876,-0.005635,0.768062,0.799602,-0.042055,0.83383,0.709862,-0.019198,0.808887,0.513983,-0.024439,1,0,1
1252,'2026/05/14 11:52:01:119',5,0.785468,0.916203,-0.000001,0.676534,0.698808,-0.053785,0.723595,0.727828,0.014214,0.705057,0.810299,-0.041835,0.756232,0.719676,0.006856,0.733018,0.821991,-0.055915,0.794331,0.712645,-0.006044,0.767145,0.801051,-0.042842,0.833996,0.70908,-0.019985,0.808169,0.5135,-0.024807,1,0,1
1253,'2026/05/14 11:52:01:151',5,0.78396,0.915295,-0.000001,0.676106,0.699024,-0.053899,0.722514,0.730266,0.011927,0.703609,0.811167,-0.042233,0.755466,0.721051,0.005729,0.731978,0.821145,-0.055112,0.794129,0.713689,-0.006045,0.766577,0.799825,-0.042225,0.834202,0.710038,-0.018941,0.808285,0.514984,-0.026006,1,0,1
1254,'2026/05/14 11:52:01:180',5,0.78563,0.915338,-0.000001,0.675071,0.69858,-0.051337,0.722862,0.73078,0.014607,0.70315,0.811306,-0.039568,0.75528,0.72104,0.007936,0.732072,0.821985,-0.053443,0.793562,0.712687,-0.004291,0.765908,0.800103,-0.040719,0.833487,0.707688,-0.017557,0.807793,0.513669,-0.022862,1,0,1
1255,'2026/05/14 11:52:01:213',5,0.784672,0.915796,-0.000001,0.674979,0.700432,-0.053051,0.72212,0.729826,0.013332,0.702954,0.810949,-0.040736,0.755051,0.720663,0.006748,0.731586,0.821445,-0.054646,0.793666,0.712957,-0.00537,0.76603,0.799349,-0.041834,0.833847,0.708897,-0.018572,0.807196,0.513567,-0.024474,1,0,1
1256,'2026/05/14 11:52:01:256',5,0.785115,0.913499,-0.000001,0.676277,0.700589,-0.053308,0.720852,0.729368,0.01105,0.703275,0.811015,-0.041014,0.753623,0.720467,0.004509,0.732127,0.820787,-0.054359,0.792269,0.71297,-0.007518,0.767606,0.801558,-0.042193,0.832466,0.708812,-0.020619,0.808059,0.514969,-0.025599,1,0,1
1257,'2026/05/14 11:52:01:284',5,0.786505,0.916452,-0.000001,0.674868,0.698455,-0.05163,0.721403,0.731735,0.012306,0.703155,0.812084,-0.040928,0.754538,0.721654,0.005868,0.731658,0.822177,-0.053854,0.793356,0.713277,-0.005947,0.766273,0.800832,-0.04073,0.833887,0.708724,-0.018856,0.807527,0.514666,-0.024835,1,0,1
1258,'2026/05/14 11:52:01:314',5,0.785863,0.916138,-0.000001,0.675039,0.698903,-0.05349,0.721871,0.731459,0.012983,0.704818,0.812292,-0.042813,0.754671,0.72151,0.006846,0.732519,0.822545,-0.054919,0.793176,0.71291,-0.004862,0.766193,0.800048,-0.040696,0.833243,0.708063,-0.017709,0.807052,0.514533,-0.023828,1,0,1
1259,'2026/05/14 11:52:01:346',5,0.784757,0.915807,-0.000001,0.674793,0.700121,-0.050573,0.72316,0.733699,0.013703,0.702743,0.81261,-0.040069,0.755017,0.723784,0.006912,0.731306,0.821757,-0.054004,0.793035,0.71531,-0.00526,0.765259,0.799619,-0.040986,0.832859,0.710461,-0.018463,0.806885,0.514528,-0.024105,1,0,1
1260,'2026/05/14 11:52:01:376',5,0.784901,0.913647,-0.000001,0.675,0.699953,-0.052263,0.719759,0.730351,0.011571,0.701487,0.81067,-0.039911,0.753014,0.720579,0.005162,0.731013,0.821358,-0.053884,0.791839,0.712496,-0.006628,0.766341,0.800102,-0.04158,0.832253,0.70797,-0.019463,0.80682,0.514849,-0.025041,1,0,1
1261,'2026/05/14 11:52:01:424',5,0.78507,0.91662,-0.000001,0.673582,0.69954,-0.050135,0.72175,0.733221,0.015276,0.703414,0.812668,-0.038769,0.754019,0.722721,0.008742,0.731463,0.822137,-0.052114,0.792169,0.713399,-0.003294,0.764736,0.799049,-0.038603,0.832032,0.707741,-0.016393,0.805531,0.515238,-0.020932,1,0,1
1262,'2026/05/14 11:52:01:457',5,0.784092,0.914587,-0.000001,0.673206,0.699251,-0.052929,0.719389,0.732098,0.012451,0.701687,0.813351,-0.041543,0.75241,0.721708,0.006188,0.730964,0.822839,-0.054478,0.791214,0.712915,-0.005584,0.764971,0.799268,-0.041088,0.83176,0.707741,-0.018457,0.805463,0.515069,-0.024666,1,0,1
1263,'2026/05/14 11:52:01:489',5,0.784374,0.916196,-0.000001,0.673687,0.700114,-0.05056,0.720291,0.733099,0.013829,0.702209,0.813877,-0.040201,0.752675,0.722912,0.006998,0.731527,0.82319,-0.053846,0.79108,0.713973,-0.005297,0.765061,0.800126,-0.040803,0.831315,0.708459,-0.018618,0.805359,0.51464,-0.023997,1,0,1
1264,'2026/05/14 11:52:01:519',5,0.785511,0.915771,-0.000001,0.673173,0.699835,-0.055329,0.719946,0.732813,0.011654,0.703797,0.813804,-0.04333,0.753238,0.7222,0.006132,0.731711,0.823701,-0.055167,0.7919,0.713096,-0.005074,0.764836,0.799919,-0.040838,0.832002,0.70794,-0.017522,0.804563,0.515504,-0.024405,1,0,1
1265,'2026/05/14 11:52:01:551',5,0.783414,0.915268,-0.000001,0.672994,0.698743,-0.054028,0.720149,0.731648,0.011682,0.702963,0.814134,-0.042819,0.753076,0.721015,0.005891,0.731604,0.82382,-0.054805,0.79161,0.712509,-0.005547,0.765479,0.799267,-0.041388,0.831632,0.707741,-0.018154,0.805012,0.514518,-0.025764,1,0,1
1266,'2026/05/14 11:52:01:582',5,0.783479,0.915054,-0.000001,0.672929,0.699074,-0.056016,0.719925,0.731629,0.012132,0.703323,0.81483,-0.042848,0.753281,0.721376,0.006577,0.732421,0.824978,-0.055442,0.792031,0.712861,-0.004736,0.764478,0.799994,-0.041064,0.832258,0.707901,-0.017283,0.805713,0.514767,-0.024122,1,0,1
1267,'2026/05/14 11:52:01:614',5,0.783966,0.915711,-0.000001,0.67422,0.70032,-0.051412,0.72161,0.7336,0.013746,0.702345,0.813242,-0.04049,0.753789,0.723777,0.006916,0.731747,0.822439,-0.054517,0.79209,0.715063,-0.005345,0.765936,0.800168,-0.041193,0.832027,0.709925,-0.018636,0.80527,0.513906,-0.023728,1,0,1
1268,'2026/05/14 11:52:01:646',5,0.78478,0.915506,-0.000001,0.673538,0.69956,-0.053059,0.720254,0.73249,0.012545,0.702693,0.813554,-0.041214,0.753512,0.721959,0.006481,0.73179,0.822506,-0.054188,0.792234,0.713021,-0.005153,0.765178,0.800674,-0.041376,0.83241,0.707671,-0.017888,0.805191,0.514408,-0.024456,1,0,1
1269,'2026/05/14 11:52:01:677',5,0.783747,0.91332,-0.000001,0.674231,0.69924,-0.053716,0.720161,0.730986,0.011767,0.703905,0.814739,-0.042634,0.753296,0.720811,0.006129,0.732757,0.824072,-0.054397,0.792079,0.712411,-0.005125,0.766286,0.798913,-0.04069,0.832427,0.707714,-0.017572,0.806385,0.514732,-0.024586,1,0,1
1270,'2026/05/14 11:52:01:713',5,0.784807,0.914421,-0.000001,0.674183,0.699753,-0.054845,0.71969,0.731791,0.010285,0.703479,0.81348,-0.043247,0.753454,0.721301,0.004783,0.732355,0.823401,-0.055674,0.792619,0.712758,-0.006208,0.766379,0.800078,-0.041576,0.833308,0.708196,-0.018409,0.806396,0.514552,-0.025742,1,0,1
1271,'2026/05/14 11:52:01:742',5,0.784407,0.914273,-0.000001,0.674008,0.6996,-0.055081,0.719901,0.731227,0.009976,0.70374,0.81324,-0.043023,0.753481,0.721422,0.004418,0.732259,0.822361,-0.055416,0.792444,0.713508,-0.006678,0.766513,0.799759,-0.042225,0.832958,0.709403,-0.018954,0.80698,0.514667,-0.026502,1,0,1
1272,'2026/05/14 11:52:01:773',5,0.785332,0.915135,-0.000001,0.674561,0.699623,-0.054251,0.721007,0.731544,0.011655,0.703751,0.813617,-0.043209,0.754299,0.721194,0.005847,0.732603,0.823449,-0.055179,0.792972,0.712672,-0.005527,0.766692,0.80091,-0.041853,0.833055,0.707768,-0.018037,0.806216,0.514892,-0.025326,1,0,1
1273,'2026/05/14 11:52:01:829',5,0.784097,0.91332,-0.000001,0.674817,0.699066,-0.055765,0.721161,0.731605,0.011657,0.705104,0.814382,-0.042729,0.754852,0.721366,0.00626,0.733705,0.823668,-0.055126,0.793811,0.712863,-0.004846,0.766751,0.800346,-0.041667,0.834088,0.70791,-0.017142,0.806743,0.514486,-0.024625,1,0,1
1274,'2026/05/14 11:52:01:864',5,0.784464,0.912733,-0.000001,0.675191,0.699873,-0.053413,0.721002,0.730513,0.010887,0.705147,0.814196,-0.043533,0.754639,0.72059,0.005193,0.733728,0.823546,-0.055426,0.79373,0.712916,-0.006107,0.767738,0.800519,-0.042889,0.834517,0.708638,-0.018498,0.808895,0.512665,-0.027485,1,0,1
1275,'2026/05/14 11:52:01:894',5,0.786062,0.915669,-0.000001,0.675831,0.69948,-0.052547,0.722689,0.731113,0.012963,0.706099,0.813075,-0.041788,0.756202,0.721252,0.006831,0.734441,0.822871,-0.054052,0.795006,0.713038,-0.004841,0.768213,0.80138,-0.040897,0.835084,0.708636,-0.017612,0.808199,0.514629,-0.024036,1,0,1
1276,'2026/05/14 11:52:01:924',5,0.785883,0.915621,-0.000001,0.676483,0.698517,-0.053108,0.722769,0.730312,0.012622,0.704615,0.812355,-0.042176,0.755762,0.721217,0.006079,0.733595,0.822868,-0.055606,0.794415,0.713532,-0.006017,0.767411,0.801551,-0.042819,0.834484,0.709001,-0.019154,0.808139,0.51337,-0.025674,1,0,1
1277,'2026/05/14 11:52:01:957',5,0.785811,0.913937,-0.000001,0.676358,0.69921,-0.053395,0.723053,0.730307,0.013135,0.704845,0.811516,-0.042311,0.755855,0.720707,0.006772,0.734135,0.822492,-0.054974,0.794345,0.712294,-0.005151,0.767753,0.799143,-0.041519,0.834285,0.70722,-0.018173,0.807191,0.514389,-0.024264,1,0,1
1278,'2026/05/14 11:52:01:990',5,0.78569,0.915561,-0.000001,0.676242,0.699495,-0.051908,0.722832,0.730265,0.013136,0.70572,0.811633,-0.04172,0.755509,0.7211,0.006246,0.734152,0.8229,-0.055197,0.793802,0.713345,-0.006139,0.768497,0.801107,-0.042677,0.833543,0.709085,-0.01954,0.807704,0.514656,-0.025431,1,0,1
1279,'2026/05/14 11:52:02:021',5,0.785064,0.915631,-0.000001,0.676796,0.699082,-0.055484,0.722845,0.728976,0.010703,0.706015,0.811826,-0.044526,0.755793,0.720346,0.004434,0.734522,0.82328,-0.057538,0.794114,0.713284,-0.007417,0.768176,0.800437,-0.044596,0.833805,0.709667,-0.020376,0.807353,0.514507,-0.027756,1,0,1
1280,'2026/05/14 11:52:02:050',5,0.785544,0.914962,-0.000001,0.676261,0.699092,-0.054659,0.72281,0.731757,0.012326,0.705894,0.812822,-0.043337,0.755978,0.721673,0.006538,0.734379,0.82322,-0.055115,0.794555,0.713406,-0.004947,0.767663,0.800407,-0.041937,0.834729,0.70861,-0.017554,0.808249,0.514003,-0.02541,1,0,1
1281,'2026/05/14 11:52:02:084',5,0.785328,0.914059,-0.000001,0.676361,0.699616,-0.0552,0.722331,0.731187,0.010755,0.704927,0.812599,-0.043041,0.755635,0.721799,0.0048,0.734337,0.82312,-0.056105,0.794458,0.713888,-0.006703,0.768279,0.799525,-0.042337,0.834679,0.709445,-0.019382,0.808838,0.515236,-0.026206,1,0,1
1282,'2026/05/14 11:52:02:115',5,0.786312,0.915265,-0.000001,0.676766,0.699672,-0.053122,0.722782,0.730866,0.012084,0.704849,0.81207,-0.042126,0.756109,0.72202,0.005516,0.733942,0.822301,-0.055238,0.79511,0.714533,-0.006538,0.769083,0.801874,-0.042043,0.835614,0.710596,-0.019693,0.808529,0.515151,-0.0254,1,0,1
1283,'2026/05/14 11:52:02:147',5,0.786777,0.915069,-0.000001,0.677157,0.699673,-0.051614,0.722329,0.731753,0.0133,0.704157,0.812477,-0.039916,0.755589,0.721767,0.006814,0.733858,0.821835,-0.053145,0.794458,0.713297,-0.00519,0.768151,0.800434,-0.040739,0.834723,0.70848,-0.018249,0.808178,0.515169,-0.023667,1,0,1
1284,'2026/05/14 11:52:02:176',5,0.785107,0.913137,-0.000001,0.676703,0.699523,-0.055643,0.722414,0.730711,0.010752,0.70624,0.812835,-0.043766,0.755671,0.721123,0.005148,0.734745,0.82311,-0.055937,0.794371,0.713652,-0.006139,0.768146,0.799064,-0.042805,0.834476,0.70972,-0.018607,0.808347,0.515131,-0.026953,1,0,1
1285,'2026/05/14 11:52:02:227',5,0.784966,0.912049,-0.000001,0.675746,0.699267,-0.057115,0.721819,0.729457,0.011265,0.706356,0.813108,-0.044993,0.755535,0.719877,0.006219,0.735361,0.822629,-0.056417,0.79442,0.712326,-0.004724,0.767744,0.798777,-0.042719,0.834693,0.70796,-0.01694,0.807818,0.514016,-0.026189,1,0,1
1286,'2026/05/14 11:52:02:256',5,0.78682,0.91274,-0.000001,0.676497,0.700285,-0.052272,0.722234,0.732926,0.011768,0.705339,0.81312,-0.040209,0.75527,0.722505,0.006467,0.73444,0.822783,-0.053029,0.793943,0.713484,-0.004376,0.768072,0.798705,-0.040265,0.834251,0.70795,-0.016339,0.807244,0.514509,-0.02359,1,0,1
1287,'2026/05/14 11:52:02:285',5,0.784827,0.913713,-0.000001,0.674789,0.699388,-0.054645,0.721009,0.732599,0.012441,0.704854,0.814564,-0.042644,0.754736,0.722294,0.007058,0.733897,0.823777,-0.054625,0.793716,0.713614,-0.004066,0.76675,0.80024,-0.040745,0.834029,0.7084,-0.016382,0.806661,0.515698,-0.023566,1,0,1
1288,'2026/05/14 11:52:02:318',5,0.785314,0.914917,-0.000001,0.675844,0.698752,-0.052245,0.722336,0.732438,0.013379,0.704622,0.813833,-0.041018,0.754873,0.72221,0.007274,0.733392,0.82358,-0.053835,0.793288,0.713376,-0.004407,0.767117,0.800043,-0.04049,0.833407,0.708064,-0.017191,0.80638,0.515276,-0.023397,1,0,1
1289,'2026/05/14 11:52:02:351',5,0.785102,0.915978,-0.000001,0.675644,0.700152,-0.051088,0.722542,0.733091,0.0135,0.703708,0.813641,-0.041134,0.754722,0.722947,0.006858,0.732622,0.82333,-0.054014,0.793105,0.714327,-0.005255,0.766665,0.800466,-0.041074,0.833357,0.709275,-0.018423,0.806051,0.515217,-0.024105,1,0,1
