@relation dataset

@attribute ID numeric
@attribute Time date 'yyyy/MM/dd HH:mm:ss:SSS'
@attribute 'Training round' numeric
@attribute inputs-1 numeric
@attribute inputs-2 numeric
@attribute outputs-1 {0,1,2,3,4,5}

@data
1,'2026/05/06 08:40:58:916',1,0.000082,0,1
2,'2026/05/06 08:40:58:947',1,0.000063,0,1
3,'2026/05/06 08:40:58:981',1,0.00006,0,1
4,'2026/05/06 08:40:59:014',1,0.000173,0,1
5,'2026/05/06 08:40:59:046',1,0.000237,0,1
6,'2026/05/06 08:40:59:080',1,0.000089,0,1
7,'2026/05/06 08:40:59:115',1,0.000051,0,1
8,'2026/05/06 08:40:59:146',1,0.000074,0,1
9,'2026/05/06 08:40:59:182',1,0.000166,0.000001,1
10,'2026/05/06 08:40:59:215',1,0.000148,0.000001,1
11,'2026/05/06 08:40:59:247',1,0.000025,0,1
12,'2026/05/06 08:40:59:279',1,0.000008,0,1
13,'2026/05/06 08:40:59:312',1,0.000011,0,1
14,'2026/05/06 08:40:59:347',1,0.000183,0,1
15,'2026/05/06 08:40:59:381',1,0.000269,0.000001,1
16,'2026/05/06 08:40:59:415',1,0.000248,0.000001,1
17,'2026/05/06 08:40:59:448',1,0.000175,0,1
18,'2026/05/06 08:40:59:481',1,0.000042,0,1
19,'2026/05/06 08:40:59:514',1,0.000029,0,1
20,'2026/05/06 08:40:59:546',1,0.000012,0,1
21,'2026/05/06 08:40:59:583',1,0.000034,0,1
22,'2026/05/06 08:40:59:615',1,0.000058,0,1
23,'2026/05/06 08:40:59:648',1,0.000072,0,1
24,'2026/05/06 08:40:59:681',1,0.000078,0,1
25,'2026/05/06 08:40:59:714',1,0.000071,0,1
26,'2026/05/06 08:40:59:748',1,0.000013,0,1
27,'2026/05/06 08:40:59:779',1,0.000062,0,1
28,'2026/05/06 08:40:59:813',1,0.000224,0.000001,1
29,'2026/05/06 08:40:59:848',1,0.000135,0,1
30,'2026/05/06 08:40:59:887',1,0.000035,0,1
31,'2026/05/06 08:40:59:918',1,0.000029,0,1
32,'2026/05/06 08:40:59:948',1,0.000238,0.000001,1
33,'2026/05/06 08:40:59:982',1,0.000165,0,1
34,'2026/05/06 08:41:00:016',1,0.000115,0,1
35,'2026/05/06 08:41:00:048',1,0.000026,0,1
36,'2026/05/06 08:41:00:082',1,0.000016,0,1
37,'2026/05/06 08:41:00:115',1,0.000134,0,1
38,'2026/05/06 08:41:00:152',1,0.000114,0,1
39,'2026/05/06 08:41:00:201',1,0.000045,0,1
40,'2026/05/06 08:41:00:233',1,0.000058,0,1
41,'2026/05/06 08:41:00:264',1,0.000081,0,1
42,'2026/05/06 08:41:00:298',1,0.00005,0,1
43,'2026/05/06 08:41:00:339',1,0.000081,0,1
44,'2026/05/06 08:41:00:384',1,0.000008,0,1
45,'2026/05/06 08:41:00:418',1,0.000007,0,1
46,'2026/05/06 08:41:00:452',1,0.000007,0,1
47,'2026/05/06 08:41:00:484',1,0.000008,0,1
48,'2026/05/06 08:41:00:518',1,0.000008,0,1
49,'2026/05/06 08:41:00:552',1,0.000011,0,1
50,'2026/05/06 08:41:00:584',1,0.000012,0,1
51,'2026/05/06 08:41:00:618',1,0.000013,0,1
52,'2026/05/06 08:41:00:652',1,0.000013,0,1
53,'2026/05/06 08:41:00:684',1,0.000012,0,1
54,'2026/05/06 08:41:00:716',1,0.00001,0,1
55,'2026/05/06 08:41:00:751',1,0.00001,0,1
56,'2026/05/06 08:41:00:785',1,0.000008,0,1
57,'2026/05/06 08:41:00:818',1,0.000006,0,1
58,'2026/05/06 08:41:00:853',1,0.000005,0,1
59,'2026/05/06 08:41:00:884',1,0.000004,0,1
60,'2026/05/06 08:41:00:918',1,0.000004,0,1
61,'2026/05/06 08:41:00:951',1,0.000009,0,1
62,'2026/05/06 08:41:00:986',1,0.000035,0,1
63,'2026/05/06 08:41:01:017',1,0.000047,0,1
64,'2026/05/06 08:41:01:051',1,0.000028,0,1
65,'2026/05/06 08:41:01:084',1,0.000031,0,1
66,'2026/05/06 08:41:01:117',1,0.000062,0,1
67,'2026/05/06 08:41:01:153',1,0.000061,0,1
68,'2026/05/06 08:41:01:184',1,0.000039,0,1
69,'2026/05/06 08:41:01:217',1,0.00007,0,1
70,'2026/05/06 08:41:01:252',1,0.000084,0,1
71,'2026/05/06 08:41:01:284',1,0.000102,0,1
72,'2026/05/06 08:41:01:318',1,0.000104,0,1
73,'2026/05/06 08:41:01:351',1,0.000032,0,1
74,'2026/05/06 08:41:01:385',1,0.000093,0,1
75,'2026/05/06 08:41:01:418',1,0.000019,0,1
76,'2026/05/06 08:41:01:453',1,0.000042,0,1
77,'2026/05/06 08:41:01:484',1,0.000028,0,1
78,'2026/05/06 08:41:01:518',1,0.000046,0,1
79,'2026/05/06 08:41:01:551',1,0.000123,0,1
80,'2026/05/06 08:41:01:584',1,0.000132,0.000001,1
81,'2026/05/06 08:41:01:619',1,0.00013,0,1
82,'2026/05/06 08:41:01:651',1,0.000047,0,1
83,'2026/05/06 08:41:01:684',1,0.000092,0,1
84,'2026/05/06 08:41:01:717',1,0.000145,0,1
85,'2026/05/06 08:41:01:751',1,0.000065,0,1
86,'2026/05/06 08:41:01:784',1,0.000219,0.000001,1
87,'2026/05/06 08:41:01:817',1,0.000212,0.000001,1
88,'2026/05/06 08:41:01:853',1,0.000032,0,1
89,'2026/05/06 08:41:01:884',1,0.000022,0,1
90,'2026/05/06 08:41:01:917',1,0.000054,0,1
91,'2026/05/06 08:41:01:952',1,0.000201,0.000001,1
92,'2026/05/06 08:41:01:985',1,0.000193,0.000001,1
93,'2026/05/06 08:41:02:017',1,0.000057,0,1
94,'2026/05/06 08:41:02:052',1,0.000036,0,1
95,'2026/05/06 08:41:02:084',1,0.000072,0,1
96,'2026/05/06 08:41:02:118',1,0.000028,0,1
97,'2026/05/06 08:41:02:150',1,0.000095,0,1
98,'2026/05/06 08:41:02:184',1,0.000079,0,1
99,'2026/05/06 08:41:02:218',1,0.000049,0,1
100,'2026/05/06 08:41:02:250',1,0.000119,0,1
101,'2026/05/06 08:41:02:284',1,0.000066,0,1
102,'2026/05/06 08:41:02:318',1,0.000131,0,1
103,'2026/05/06 08:41:02:352',1,0.000095,0,1
104,'2026/05/06 08:41:02:385',1,0.000039,0,1
105,'2026/05/06 08:41:02:418',1,0.000031,0,1
106,'2026/05/06 08:41:02:452',1,0.000016,0,1
107,'2026/05/06 08:41:02:484',1,0.000019,0,1
108,'2026/05/06 08:41:02:519',1,0.000061,0,1
109,'2026/05/06 08:41:02:552',1,0.000077,0,1
110,'2026/05/06 08:41:02:585',1,0.000099,0,1
111,'2026/05/06 08:41:02:617',1,0.000095,0,1
112,'2026/05/06 08:41:02:651',1,0.000034,0,1
113,'2026/05/06 08:41:02:685',1,0.000054,0,1
114,'2026/05/06 08:41:02:718',1,0.000079,0,1
115,'2026/05/06 08:41:02:752',1,0.000041,0,1
116,'2026/05/06 08:41:02:783',1,0.000014,0,1
117,'2026/05/06 08:41:02:818',1,0.000013,0,1
118,'2026/05/06 08:41:02:851',1,0.000007,0,1
119,'2026/05/06 08:41:02:885',1,0.000005,0,1
120,'2026/05/06 08:41:02:918',1,0.000005,0,1
121,'2026/05/06 08:41:02:952',1,0.000004,0,1
122,'2026/05/06 08:41:02:985',1,0.000004,0,1
123,'2026/05/06 08:41:03:017',1,0.000004,0,1
124,'2026/05/06 08:41:03:051',1,0.000004,0,1
125,'2026/05/06 08:41:03:084',1,0.000003,0,1
126,'2026/05/06 08:41:03:117',1,0.000004,0,1
127,'2026/05/06 08:41:03:152',1,0.000004,0,1
128,'2026/05/06 08:41:03:185',1,0.000004,0,1
129,'2026/05/06 08:41:03:219',1,0.000003,0,1
130,'2026/05/06 08:41:03:252',1,0.000003,0,1
131,'2026/05/06 08:41:03:284',1,0.000004,0,1
132,'2026/05/06 08:41:03:319',1,0.000004,0,1
133,'2026/05/06 08:41:03:353',1,0.000004,0,1
134,'2026/05/06 08:41:03:385',1,0.000004,0,1
135,'2026/05/06 08:41:03:417',1,0.000003,0,1
136,'2026/05/06 08:41:03:451',1,0.000004,0,1
137,'2026/05/06 08:41:03:486',1,0.000004,0,1
138,'2026/05/06 08:41:03:517',1,0.000004,0,1
139,'2026/05/06 08:41:03:551',1,0.000003,0,1
140,'2026/05/06 08:41:03:584',1,0.000004,0,1
141,'2026/05/06 08:41:03:617',1,0.000004,0,1
142,'2026/05/06 08:41:03:652',1,0.000004,0,1
143,'2026/05/06 08:41:03:684',1,0.000004,0,1
144,'2026/05/06 08:41:03:718',1,0.000004,0,1
145,'2026/05/06 08:41:03:753',1,0.000003,0,1
146,'2026/05/06 08:41:03:785',1,0.000003,0,1
147,'2026/05/06 08:41:03:818',1,0.000004,0,1
148,'2026/05/06 08:41:03:852',1,0.000004,0,1
149,'2026/05/06 08:41:03:884',1,0.000004,0,1
150,'2026/05/06 08:41:03:917',1,0.000004,0,1
151,'2026/05/06 08:41:03:953',1,0.000003,0,1
152,'2026/05/06 08:41:03:985',1,0.000003,0,1
153,'2026/05/06 08:41:04:018',1,0.000004,0,1
154,'2026/05/06 08:41:04:052',1,0.000004,0,1
155,'2026/05/06 08:41:04:086',1,0.000004,0,1
156,'2026/05/06 08:41:04:118',1,0.000003,0,1
157,'2026/05/06 08:41:04:152',1,0.000004,0,1
158,'2026/05/06 08:41:04:187',1,0.000003,0,1
159,'2026/05/06 08:41:04:219',1,0.000003,0,1
160,'2026/05/06 08:41:04:251',1,0.000024,0,1
161,'2026/05/06 08:41:04:284',1,0.000024,0,1
162,'2026/05/06 08:41:04:318',1,0.000038,0,1
163,'2026/05/06 08:41:04:350',1,0.00006,0,1
164,'2026/05/06 08:41:04:384',1,0.000066,0,1
165,'2026/05/06 08:41:04:418',1,0.000058,0,1
166,'2026/05/06 08:41:04:451',1,0.000025,0,1
167,'2026/05/06 08:41:04:484',1,0.000023,0,1
168,'2026/05/06 08:41:04:519',1,0.000014,0,1
169,'2026/05/06 08:41:04:552',1,0.000011,0,1
170,'2026/05/06 08:41:04:583',1,0.00002,0,1
171,'2026/05/06 08:41:04:618',1,0.000005,0,1
172,'2026/05/06 08:41:04:651',1,0.000018,0,1
173,'2026/05/06 08:41:04:686',1,0.000015,0,1
174,'2026/05/06 08:41:04:717',1,0.000048,0,1
175,'2026/05/06 08:41:04:752',1,0.000035,0,1
176,'2026/05/06 08:41:04:786',1,0.000022,0,1
177,'2026/05/06 08:41:04:818',1,0.000017,0,1
178,'2026/05/06 08:41:04:852',1,0.000164,0.000001,1
179,'2026/05/06 08:41:04:884',1,0.000037,0,1
180,'2026/05/06 08:41:04:916',1,0.000017,0,1
181,'2026/05/06 08:41:04:950',1,0.000063,0,1
182,'2026/05/06 08:41:04:985',1,0.000031,0,1
183,'2026/05/06 08:41:05:023',1,0.000018,0,1
184,'2026/05/06 08:41:05:053',1,0.000054,0,1
185,'2026/05/06 08:41:05:084',1,0.000064,0,1
186,'2026/05/06 08:41:05:131',1,0.000079,0,1
187,'2026/05/06 08:41:05:177',1,0.000075,0,1
188,'2026/05/06 08:41:05:223',1,0.000128,0,1
189,'2026/05/06 08:41:05:257',1,0.000232,0.000001,1
190,'2026/05/06 08:41:05:303',1,0.000049,0,1
191,'2026/05/06 08:41:05:346',1,0.000054,0,1
192,'2026/05/06 08:41:05:381',1,0.000048,0,1
193,'2026/05/06 08:41:05:411',1,0.000033,0,1
194,'2026/05/06 08:41:05:446',1,0.000022,0,1
195,'2026/05/06 08:41:05:480',1,0.00003,0,1
196,'2026/05/06 08:41:05:512',1,0.000021,0,1
197,'2026/05/06 08:41:05:545',1,0.000022,0,1
198,'2026/05/06 08:41:05:580',1,0.000008,0,1
199,'2026/05/06 08:41:05:613',1,0.000005,0,1
200,'2026/05/06 08:41:05:645',1,0.000004,0,1
201,'2026/05/06 08:41:05:679',1,0.000004,0,1
202,'2026/05/06 08:41:05:712',1,0.000005,0,1
203,'2026/05/06 08:41:05:746',1,0.000006,0,1
204,'2026/05/06 08:41:05:778',1,0.000009,0,1
205,'2026/05/06 08:41:05:812',1,0.000012,0,1
206,'2026/05/06 08:41:05:847',1,0.000015,0,1
207,'2026/05/06 08:41:05:880',1,0.00001,0,1
208,'2026/05/06 08:41:05:912',1,0.000008,0,1
209,'2026/05/06 08:41:05:946',1,0.000009,0,1
210,'2026/05/06 08:41:05:980',1,0.00001,0,1
211,'2026/05/06 08:41:06:012',1,0.00001,0,1
212,'2026/05/06 08:41:06:047',1,0.000009,0,1
213,'2026/05/06 08:41:06:079',1,0.000008,0,1
214,'2026/05/06 08:41:06:113',1,0.000008,0,1
215,'2026/05/06 08:41:06:146',1,0.000007,0,1
216,'2026/05/06 08:41:06:178',1,0.000006,0,1
217,'2026/05/06 08:41:06:213',1,0.000006,0,1
218,'2026/05/06 08:41:06:245',1,0.000004,0,1
219,'2026/05/06 08:41:06:279',1,0.000004,0,1
220,'2026/05/06 08:41:06:313',1,0.000004,0,1
221,'2026/05/06 08:41:06:345',1,0.000003,0,1
222,'2026/05/06 08:41:06:379',1,0.000004,0,1
223,'2026/05/06 08:41:06:413',1,0.000004,0,1
224,'2026/05/06 08:41:06:447',1,0.000004,0,1
225,'2026/05/06 08:41:06:479',1,0.000003,0,1
226,'2026/05/06 08:41:06:512',1,0.000003,0,1
227,'2026/05/06 08:41:06:546',1,0.000004,0,1
228,'2026/05/06 08:41:06:579',1,0.000004,0,1
229,'2026/05/06 08:41:06:613',1,0.000004,0,1
230,'2026/05/06 08:41:06:648',1,0.000004,0,1
231,'2026/05/06 08:41:06:678',1,0.000004,0,1
232,'2026/05/06 08:41:06:712',1,0.000004,0,1
233,'2026/05/06 08:41:06:747',1,0.000135,0,1
234,'2026/05/06 08:41:06:838',1,0.000155,0.000001,1
235,'2026/05/06 08:41:06:878',1,0.000142,0.000001,1
236,'2026/05/06 08:41:06:912',1,0.000126,0.000001,1
237,'2026/05/06 08:41:06:955',1,0.000086,0,1
238,'2026/05/06 08:41:06:986',1,0.000082,0,1
239,'2026/05/06 08:41:07:021',1,0.000084,0,1
240,'2026/05/06 08:41:07:065',1,0.000045,0,1
241,'2026/05/06 08:41:07:104',1,0.000009,0,1
242,'2026/05/06 08:41:07:135',1,0.000008,0,1
243,'2026/05/06 08:41:07:167',1,0.000005,0,1
244,'2026/05/06 08:41:07:201',1,0.000135,0,1
245,'2026/05/06 08:41:07:231',1,0.000172,0,1
246,'2026/05/06 08:41:07:277',1,0.000068,0,1
247,'2026/05/06 08:41:07:321',1,0.000064,0,1
248,'2026/05/06 08:41:07:354',1,0.000049,0,1
249,'2026/05/06 08:41:07:388',1,0.000017,0,1
250,'2026/05/06 08:41:07:419',1,0.00001,0,1
251,'2026/05/06 08:41:07:454',1,0.000007,0,1
252,'2026/05/06 08:41:07:488',1,0.000147,0,1
253,'2026/05/06 08:41:07:519',1,0.000156,0,1
254,'2026/05/06 08:41:07:556',1,0.000127,0,1
255,'2026/05/06 08:41:07:603',1,0.000086,0,1
256,'2026/05/06 08:41:07:637',1,0.000067,0,1
257,'2026/05/06 08:41:07:669',1,0.000029,0,1
258,'2026/05/06 08:41:07:704',1,0.000038,0,1
259,'2026/05/06 08:41:07:737',1,0.00005,0,1
260,'2026/05/06 08:41:07:770',1,0.000009,0,1
261,'2026/05/06 08:41:07:804',1,0.000007,0,1
262,'2026/05/06 08:41:07:837',1,0.000005,0,1
263,'2026/05/06 08:41:07:870',1,0.000005,0,1
264,'2026/05/06 08:41:07:905',1,0.000004,0,1
265,'2026/05/06 08:41:07:938',1,0.000004,0,1
266,'2026/05/06 08:41:07:971',1,0.000004,0,1
267,'2026/05/06 08:41:08:005',1,0.000003,0,1
268,'2026/05/06 08:41:08:037',1,0.000004,0,1
269,'2026/05/06 08:41:08:070',1,0.000004,0,1
270,'2026/05/06 08:41:08:104',1,0.000004,0,1
271,'2026/05/06 08:41:08:137',1,0.000005,0,1
272,'2026/05/06 08:41:08:171',1,0.000005,0,1
273,'2026/05/06 08:41:08:204',1,0.000005,0,1
274,'2026/05/06 08:41:08:238',1,0.000005,0,1
275,'2026/05/06 08:41:08:271',1,0.000005,0,1
276,'2026/05/06 08:41:08:303',1,0.000005,0,1
277,'2026/05/06 08:41:08:340',1,0.000004,0,1
278,'2026/05/06 08:41:08:399',1,0.000043,0,1
279,'2026/05/06 08:41:08:444',1,0.000132,0,1
280,'2026/05/06 08:41:08:478',1,0.000096,0,1
281,'2026/05/06 08:41:08:509',1,0.000061,0,1
282,'2026/05/06 08:41:08:542',1,0.000045,0,1
283,'2026/05/06 08:41:08:576',1,0.000063,0,1
284,'2026/05/06 08:41:08:609',1,0.000101,0,1
285,'2026/05/06 08:41:08:644',1,0.000069,0,1
286,'2026/05/06 08:41:08:677',1,0.000029,0,1
287,'2026/05/06 08:41:08:710',1,0.000012,0,1
288,'2026/05/06 08:41:08:742',1,0.000077,0,1
289,'2026/05/06 08:41:08:777',1,0.000032,0,1
290,'2026/05/06 08:41:08:810',1,0.000023,0,1
291,'2026/05/06 08:41:08:844',1,0.000108,0,1
292,'2026/05/06 08:41:08:876',1,0.000019,0,1
293,'2026/05/06 08:41:08:910',1,0.000009,0,1
294,'2026/05/06 08:41:08:943',1,0.000107,0,1
295,'2026/05/06 08:41:08:977',1,0.00008,0,1
296,'2026/05/06 08:41:09:011',1,0.000058,0,1
297,'2026/05/06 08:41:09:043',1,0.00006,0,1
298,'2026/05/06 08:41:09:078',1,0.000066,0,1
299,'2026/05/06 08:41:09:109',1,0.000057,0,1
300,'2026/05/06 08:41:09:143',1,0.000074,0,1
301,'2026/05/06 08:41:09:177',1,0.000097,0,1
302,'2026/05/06 08:41:09:210',1,0.00008,0,1
303,'2026/05/06 08:41:09:243',1,0.000022,0,1
304,'2026/05/06 08:41:09:276',1,0.00001,0,1
305,'2026/05/06 08:41:09:309',1,0.000066,0,1
306,'2026/05/06 08:41:09:344',1,0.000075,0,1
307,'2026/05/06 08:41:09:376',1,0.000065,0,1
308,'2026/05/06 08:41:09:409',1,0.000045,0,1
309,'2026/05/06 08:41:09:442',1,0.000077,0,1
310,'2026/05/06 08:41:09:478',1,0.000063,0,1
311,'2026/05/06 08:41:09:509',1,0.000024,0,1
312,'2026/05/06 08:41:09:543',1,0.000013,0,1
313,'2026/05/06 08:41:09:577',1,0.000022,0,1
314,'2026/05/06 08:41:09:610',1,0.000059,0,1
315,'2026/05/06 08:41:09:643',1,0.000065,0,1
316,'2026/05/06 08:41:09:676',1,0.000065,0,1
317,'2026/05/06 08:41:09:710',1,0.000088,0,1
318,'2026/05/06 08:41:09:744',1,0.000081,0,1
319,'2026/05/06 08:41:09:777',1,0.000041,0,1
320,'2026/05/06 08:41:09:810',1,0.000022,0,1
321,'2026/05/06 08:41:09:845',1,0.000074,0,1
322,'2026/05/06 08:41:09:877',1,0.000047,0,1
323,'2026/05/06 08:41:09:918',1,0.000046,0,1
324,'2026/05/06 08:41:09:960',1,0.000099,0,1
325,'2026/05/06 08:41:09:994',1,0.000035,0,1
326,'2026/05/06 08:41:10:028',1,0.000019,0,1
327,'2026/05/06 08:41:10:061',1,0.000098,0,1
328,'2026/05/06 08:41:10:095',1,0.000025,0,1
329,'2026/05/06 08:41:10:126',1,0.000089,0,1
330,'2026/05/06 08:41:10:160',1,0.000054,0,1
331,'2026/05/06 08:41:10:194',1,0.00004,0,1
332,'2026/05/06 08:41:10:226',1,0.000123,0,1
333,'2026/05/06 08:41:10:261',1,0.000099,0,1
334,'2026/05/06 08:41:10:295',1,0.000059,0,1
335,'2026/05/06 08:41:10:328',1,0.000071,0,1
336,'2026/05/06 08:41:10:361',1,0.00007,0,1
337,'2026/05/06 08:41:10:394',1,0.000019,0,1
338,'2026/05/06 08:41:10:427',1,0.000018,0,1
339,'2026/05/06 08:41:10:462',1,0.000006,0,1
340,'2026/05/06 08:41:10:494',1,0.000005,0,1
341,'2026/05/06 08:41:10:528',1,0.000004,0,1
342,'2026/05/06 08:41:10:561',1,0.000004,0,1
343,'2026/05/06 08:41:10:594',1,0.000004,0,1
344,'2026/05/06 08:41:10:627',1,0.000004,0,1
345,'2026/05/06 08:41:10:660',1,0.000004,0,1
346,'2026/05/06 08:41:10:695',1,0.000003,0,1
347,'2026/05/06 08:41:10:728',1,0.000004,0,1
348,'2026/05/06 08:41:10:762',1,0.000004,0,1
349,'2026/05/06 08:41:10:794',1,0.000004,0,1
350,'2026/05/06 08:41:10:828',1,0.000003,0,1
351,'2026/05/06 08:41:10:861',1,0.000003,0,1
352,'2026/05/06 08:41:10:892',1,0.000004,0,1
353,'2026/05/06 08:41:10:927',1,0.000082,0,1
354,'2026/05/06 08:41:10:960',1,0.000043,0,1
355,'2026/05/06 08:41:10:995',1,0.000048,0,1
356,'2026/05/06 08:41:11:028',1,0.000059,0,1
357,'2026/05/06 08:41:11:060',1,0.000048,0,1
358,'2026/05/06 08:41:11:094',1,0.000195,0.000001,1
359,'2026/05/06 08:41:11:127',1,0.000181,0.000001,1
360,'2026/05/06 08:41:11:161',1,0.000084,0,1
361,'2026/05/06 08:41:11:194',1,0.000016,0,1
362,'2026/05/06 08:41:11:227',1,0.000019,0,1
363,'2026/05/06 08:41:11:260',1,0.000058,0,1
364,'2026/05/06 08:41:11:299',1,0.000062,0,1
365,'2026/05/06 08:41:11:343',1,0.000093,0,1
366,'2026/05/06 08:41:11:379',1,0.00004,0,1
367,'2026/05/06 08:41:11:412',1,0.000031,0,1
368,'2026/05/06 08:41:11:444',1,0.000099,0,1
369,'2026/05/06 08:41:11:478',1,0.000094,0,1
370,'2026/05/06 08:41:11:512',1,0.000051,0,1
371,'2026/05/06 08:41:11:544',1,0.000032,0,1
372,'2026/05/06 08:41:11:577',1,0.000008,0,1
373,'2026/05/06 08:41:11:611',1,0.000037,0,1
374,'2026/05/06 08:41:11:645',1,0.000125,0,1
375,'2026/05/06 08:41:11:677',1,0.000208,0.000001,1
376,'2026/05/06 08:41:11:712',1,0.0002,0.000001,1
377,'2026/05/06 08:41:11:745',1,0.000094,0,1
378,'2026/05/06 08:41:11:777',1,0.000043,0,1
379,'2026/05/06 08:41:11:811',1,0.000105,0,1
380,'2026/05/06 08:41:11:843',1,0.000124,0,1
381,'2026/05/06 08:41:11:878',1,0.000151,0,1
382,'2026/05/06 08:41:11:911',1,0.000033,0,1
383,'2026/05/06 08:41:11:945',1,0.000044,0,1
384,'2026/05/06 08:41:11:977',1,0.000119,0,1
385,'2026/05/06 08:41:12:010',1,0.000092,0,1
386,'2026/05/06 08:41:12:044',1,0.000036,0,1
387,'2026/05/06 08:41:12:079',1,0.000019,0,1
388,'2026/05/06 08:41:12:113',1,0.00004,0,1
389,'2026/05/06 08:41:12:144',1,0.000178,0.000001,1
390,'2026/05/06 08:41:12:176',1,0.000162,0,1
391,'2026/05/06 08:41:12:211',1,0.000105,0,1
392,'2026/05/06 08:41:12:244',1,0.000078,0,1
393,'2026/05/06 08:41:12:277',1,0.000039,0,1
394,'2026/05/06 08:41:12:311',1,0.000033,0,1
395,'2026/05/06 08:41:12:345',1,0.000026,0,1
396,'2026/05/06 08:41:12:378',1,0.00001,0,1
397,'2026/05/06 08:41:12:411',1,0.00003,0,1
398,'2026/05/06 08:41:12:443',1,0.000041,0,1
399,'2026/05/06 08:41:12:478',1,0.000043,0,1
400,'2026/05/06 08:41:12:512',1,0.000039,0,1
401,'2026/05/06 08:41:12:545',1,0.000027,0,1
402,'2026/05/06 08:41:12:577',1,0.000072,0,1
403,'2026/05/06 08:41:12:611',1,0.000135,0,1
404,'2026/05/06 08:41:12:645',1,0.000134,0,1
405,'2026/05/06 08:41:12:678',1,0.000031,0,1
406,'2026/05/06 08:41:12:711',1,0.000014,0,1
407,'2026/05/06 08:41:12:743',1,0.000067,0,1
408,'2026/05/06 08:41:12:779',1,0.0001,0,1
409,'2026/05/06 08:41:12:812',1,0.000084,0,1
410,'2026/05/06 08:41:12:843',1,0.000035,0,1
411,'2026/05/06 08:41:12:877',1,0.000053,0,1
412,'2026/05/06 08:41:12:912',1,0.000009,0,1
413,'2026/05/06 08:41:12:944',1,0.000028,0,1
414,'2026/05/06 08:41:12:977',1,0.000012,0,1
415,'2026/05/06 08:41:13:012',1,0.000007,0,1
416,'2026/05/06 08:41:13:044',1,0.000021,0,1
417,'2026/05/06 08:41:13:079',1,0.000119,0.000001,1
418,'2026/05/06 08:41:13:111',1,0.000095,0,1
419,'2026/05/06 08:41:13:146',1,0.000063,0,1
420,'2026/05/06 08:41:13:178',1,0.00008,0,1
421,'2026/05/06 08:41:13:212',1,0.000074,0,1
422,'2026/05/06 08:41:13:244',1,0.000063,0,1
423,'2026/05/06 08:41:13:279',1,0.000058,0,1
424,'2026/05/06 08:41:13:311',1,0.000086,0,1
425,'2026/05/06 08:41:13:345',1,0.000079,0,1
426,'2026/05/06 08:41:13:378',1,0.000094,0,1
427,'2026/05/06 08:41:13:411',1,0.000013,0,1
428,'2026/05/06 08:41:13:445',1,0.000022,0,1
429,'2026/05/06 08:41:13:477',1,0.000034,0,1
430,'2026/05/06 08:41:13:512',1,0.000103,0,1
431,'2026/05/06 08:41:13:544',1,0.000151,0,1
432,'2026/05/06 08:41:13:576',1,0.00015,0.000001,1
433,'2026/05/06 08:41:13:612',1,0.000146,0.000001,1
434,'2026/05/06 08:41:13:646',1,0.000114,0,1
435,'2026/05/06 08:41:13:679',1,0.000093,0,1
436,'2026/05/06 08:41:13:713',1,0.000068,0,1
437,'2026/05/06 08:41:13:745',1,0.000017,0,1
438,'2026/05/06 08:41:13:778',1,0.000009,0,1
439,'2026/05/06 08:41:13:812',1,0.000151,0,1
440,'2026/05/06 08:41:13:844',1,0.000152,0,1
441,'2026/05/06 08:41:13:879',1,0.000129,0,1
442,'2026/05/06 08:41:13:912',1,0.000065,0,1
443,'2026/05/06 08:41:13:945',1,0.000083,0,1
444,'2026/05/06 08:41:13:976',1,0.000069,0,1
445,'2026/05/06 08:41:14:012',1,0.00002,0,1
446,'2026/05/06 08:41:14:044',1,0.000022,0,1
447,'2026/05/06 08:41:14:078',1,0.000088,0,1
448,'2026/05/06 08:41:14:112',1,0.000122,0,1
449,'2026/05/06 08:41:14:146',1,0.000145,0,1
450,'2026/05/06 08:41:14:179',1,0.00006,0,1
451,'2026/05/06 08:41:14:212',1,0.000122,0,1
452,'2026/05/06 08:41:14:244',1,0.000075,0,1
453,'2026/05/06 08:41:14:277',1,0.000062,0,1
454,'2026/05/06 08:41:14:314',1,0.000038,0,1
455,'2026/05/06 08:41:14:345',1,0.00001,0,1
456,'2026/05/06 08:41:14:379',1,0.000007,0,1
457,'2026/05/06 08:41:14:411',1,0.00003,0,1
458,'2026/05/06 08:41:14:445',1,0.000097,0,1
459,'2026/05/06 08:41:14:478',1,0.000096,0,1
460,'2026/05/06 08:41:14:511',1,0.000125,0.000001,1
461,'2026/05/06 08:41:14:545',1,0.000142,0.000001,1
462,'2026/05/06 08:41:14:578',1,0.000111,0,1
463,'2026/05/06 08:41:14:611',1,0.00006,0,1
464,'2026/05/06 08:41:14:645',1,0.000074,0,1
465,'2026/05/06 08:41:14:677',1,0.000081,0,1
466,'2026/05/06 08:41:14:709',1,0.000055,0,1
467,'2026/05/06 08:41:14:745',1,0.000068,0,1
468,'2026/05/06 08:41:14:777',1,0.000078,0,1
469,'2026/05/06 08:41:14:811',1,0.000099,0,1
470,'2026/05/06 08:41:14:844',1,0.000089,0,1
471,'2026/05/06 08:41:14:878',1,0.00005,0,1
472,'2026/05/06 08:41:14:911',1,0.000073,0,1
473,'2026/05/06 08:41:14:944',1,0.000044,0,1
474,'2026/05/06 08:41:14:980',1,0.000035,0,1
475,'2026/05/06 08:41:15:011',1,0.000035,0,1
476,'2026/05/06 08:41:15:044',1,0.000032,0,1
477,'2026/05/06 08:41:15:078',1,0.000085,0,1
478,'2026/05/06 08:41:15:110',1,0.000104,0,1
479,'2026/05/06 08:41:15:145',1,0.0001,0,1
480,'2026/05/06 08:41:15:178',1,0.000078,0,1
481,'2026/05/06 08:41:15:212',1,0.000042,0,1
482,'2026/05/06 08:41:15:244',1,0.00001,0,1
483,'2026/05/06 08:41:15:277',1,0.000055,0,1
484,'2026/05/06 08:41:15:312',1,0.000019,0,1
485,'2026/05/06 08:41:15:344',1,0.000013,0,1
486,'2026/05/06 08:41:15:378',1,0.000105,0,1
487,'2026/05/06 08:41:15:412',1,0.000133,0,1
488,'2026/05/06 08:41:15:445',1,0.000022,0,1
489,'2026/05/06 08:41:15:478',1,0.000015,0,1
490,'2026/05/06 08:41:15:511',1,0.00006,0,1
491,'2026/05/06 08:41:15:544',1,0.000074,0,1
492,'2026/05/06 08:41:15:576',1,0.000044,0,1
493,'2026/05/06 08:41:15:610',1,0.000084,0,1
494,'2026/05/06 08:41:15:645',1,0.00003,0,1
495,'2026/05/06 08:41:15:678',1,0.000115,0,1
496,'2026/05/06 08:41:15:711',1,0.000217,0.000001,1
497,'2026/05/06 08:41:15:744',1,0.000171,0,1
498,'2026/05/06 08:41:15:777',1,0.000087,0,1
499,'2026/05/06 08:41:15:812',1,0.000096,0,1
500,'2026/05/06 08:41:15:884',1,0.000014,0,1
501,'2026/05/06 08:41:15:923',1,0.000006,0,1
502,'2026/05/06 08:41:15:967',1,0.000005,0,1
503,'2026/05/06 08:41:16:003',1,0.000004,0,1
504,'2026/05/06 08:41:16:050',1,0.000004,0,1
505,'2026/05/06 08:41:16:081',1,0.000004,0,1
506,'2026/05/06 08:41:16:115',1,0.000004,0,1
507,'2026/05/06 08:41:16:150',1,0.000004,0,1
508,'2026/05/06 08:41:16:182',1,0.000004,0,1
509,'2026/05/06 08:41:16:215',1,0.000004,0,1
510,'2026/05/06 08:41:16:248',1,0.000004,0,1
511,'2026/05/06 08:41:16:282',1,0.000004,0,1
512,'2026/05/06 08:41:16:314',1,0.000004,0,1
513,'2026/05/06 08:41:16:349',1,0.000004,0,1
514,'2026/05/06 08:41:16:382',1,0.000004,0,1
515,'2026/05/06 08:41:16:416',1,0.000004,0,1
516,'2026/05/06 08:41:16:451',1,0.000004,0,1
517,'2026/05/06 08:41:16:482',1,0.000004,0,1
518,'2026/05/06 08:41:16:516',1,0.000004,0,1
519,'2026/05/06 08:41:16:548',1,0.000004,0,1
520,'2026/05/06 08:41:16:581',1,0.000018,0,1
521,'2026/05/06 08:41:16:615',1,0.000035,0,1
522,'2026/05/06 08:41:16:649',1,0.000105,0,1
523,'2026/05/06 08:41:16:682',1,0.000105,0,1
524,'2026/05/06 08:41:16:715',1,0.000196,0,1
525,'2026/05/06 08:41:16:748',1,0.000127,0,1
526,'2026/05/06 08:41:16:783',1,0.000031,0,1
527,'2026/05/06 08:41:16:816',1,0.00003,0,1
528,'2026/05/06 08:41:16:850',1,0.000069,0,1
529,'2026/05/06 08:41:16:883',1,0.000078,0,1
530,'2026/05/06 08:41:16:916',1,0.000037,0,1
531,'2026/05/06 08:41:16:948',1,0.000028,0,1
532,'2026/05/06 08:41:16:982',1,0.000018,0,1
533,'2026/05/06 08:41:17:016',1,0.000046,0,1
534,'2026/05/06 08:41:17:048',1,0.000054,0,1
535,'2026/05/06 08:41:17:083',1,0.000068,0,1
536,'2026/05/06 08:41:17:116',1,0.000054,0,1
537,'2026/05/06 08:41:17:148',1,0.00005,0,1
538,'2026/05/06 08:41:17:183',1,0.000015,0,1
539,'2026/05/06 08:41:17:215',1,0.000007,0,1
540,'2026/05/06 08:41:17:249',1,0.000005,0,1
541,'2026/05/06 08:41:17:281',1,0.000004,0,1
542,'2026/05/06 08:41:17:316',1,0.000004,0,1
543,'2026/05/06 08:41:17:348',1,0.000004,0,1
544,'2026/05/06 08:41:17:384',1,0.000004,0,1
545,'2026/05/06 08:41:17:415',1,0.000003,0,1
546,'2026/05/06 08:41:17:448',1,0.000004,0,1
547,'2026/05/06 08:41:17:483',1,0.000003,0,1
548,'2026/05/06 08:41:17:516',1,0.000004,0,1
549,'2026/05/06 08:41:17:548',1,0.000003,0,1
550,'2026/05/06 08:41:17:582',1,0.000011,0,1
551,'2026/05/06 08:41:17:615',1,0.000033,0,1
552,'2026/05/06 08:41:17:648',1,0.000026,0,1
553,'2026/05/06 08:41:17:683',1,0.000014,0,1
554,'2026/05/06 08:41:17:716',1,0.000037,0,1
555,'2026/05/06 08:41:17:748',1,0.000038,0,1
556,'2026/05/06 08:41:17:782',1,0.000044,0,1
557,'2026/05/06 08:41:17:815',1,0.00002,0,1
558,'2026/05/06 08:41:17:849',1,0.000048,0,1
559,'2026/05/06 08:41:17:882',1,0.000044,0,1
560,'2026/05/06 08:41:17:916',1,0.000063,0,1
561,'2026/05/06 08:41:17:948',1,0.000057,0,1
562,'2026/05/06 08:41:17:982',1,0.000054,0,1
563,'2026/05/06 08:41:18:015',1,0.000013,0,1
564,'2026/05/06 08:41:18:051',1,0.000093,0,1
565,'2026/05/06 08:41:18:082',1,0.000019,0,1
566,'2026/05/06 08:41:18:115',1,0.000012,0,1
567,'2026/05/06 08:41:18:148',1,0.000014,0,1
568,'2026/05/06 08:41:18:183',1,0.000018,0,1
569,'2026/05/06 08:41:18:216',1,0.000023,0,1
570,'2026/05/06 08:41:18:248',1,0.000157,0.000001,1
571,'2026/05/06 08:41:18:281',1,0.000121,0,1
572,'2026/05/06 08:41:18:316',1,0.000083,0,1
573,'2026/05/06 08:41:18:348',1,0.000085,0,1
574,'2026/05/06 08:41:18:381',1,0.000096,0,1
575,'2026/05/06 08:41:18:416',1,0.0001,0,1
576,'2026/05/06 08:41:18:451',1,0.000036,0,1
577,'2026/05/06 08:41:18:485',1,0.000063,0,1
578,'2026/05/06 08:41:18:516',1,0.000034,0,1
579,'2026/05/06 08:41:18:550',1,0.000069,0,1
580,'2026/05/06 08:41:18:583',1,0.00004,0,1
581,'2026/05/06 08:41:18:615',1,0.000141,0,1
582,'2026/05/06 08:41:18:649',1,0.000195,0,1
583,'2026/05/06 08:41:18:684',1,0.000045,0,1
584,'2026/05/06 08:41:18:716',1,0.00002,0,1
585,'2026/05/06 08:41:18:748',1,0.000022,0,1
586,'2026/05/06 08:41:18:781',1,0.000021,0,1
587,'2026/05/06 08:41:18:816',1,0.000043,0,1
588,'2026/05/06 08:41:18:849',1,0.000168,0.000001,1
589,'2026/05/06 08:41:18:883',1,0.00007,0,1
590,'2026/05/06 08:41:18:916',1,0.000046,0,1
591,'2026/05/06 08:41:18:950',1,0.000026,0,1
592,'2026/05/06 08:41:18:982',1,0.000061,0,1
593,'2026/05/06 08:41:19:016',1,0.000123,0,1
594,'2026/05/06 08:41:19:050',1,0.000096,0,1
595,'2026/05/06 08:41:19:082',1,0.000046,0,1
596,'2026/05/06 08:41:19:116',1,0.000114,0,1
597,'2026/05/06 08:41:19:150',1,0.000102,0,1
598,'2026/05/06 08:41:19:182',1,0.00005,0,1
599,'2026/05/06 08:41:19:216',1,0.000099,0,1
600,'2026/05/06 08:41:19:249',1,0.000083,0,1
601,'2026/05/06 08:41:19:281',1,0.000039,0,1
602,'2026/05/06 08:41:19:316',1,0.000033,0,1
603,'2026/05/06 08:41:19:349',1,0.000017,0,1
604,'2026/05/06 08:41:19:383',1,0.000018,0,1
605,'2026/05/06 08:41:19:416',1,0.000024,0,1
606,'2026/05/06 08:41:19:450',1,0.000044,0,1
607,'2026/05/06 08:41:19:484',1,0.000156,0,1
608,'2026/05/06 08:41:19:517',1,0.000072,0,1
609,'2026/05/06 08:41:50:543',2,0.00059,0.000002,2
610,'2026/05/06 08:41:50:575',2,0.00027,0.000001,2
611,'2026/05/06 08:41:50:608',2,0.000308,0.000001,2
612,'2026/05/06 08:41:50:642',2,0.000312,0.000001,2
613,'2026/05/06 08:41:50:674',2,0.000285,0,2
614,'2026/05/06 08:41:50:707',2,0.000428,0.000001,2
615,'2026/05/06 08:41:50:748',2,0.000453,0.000001,2
616,'2026/05/06 08:41:50:792',2,0.000373,0.000001,2
617,'2026/05/06 08:41:50:825',2,0.000326,0.000001,2
618,'2026/05/06 08:41:50:858',2,0.000238,0,2
619,'2026/05/06 08:41:50:891',2,0.000267,0.000001,2
620,'2026/05/06 08:41:50:926',2,0.000406,0.000001,2
621,'2026/05/06 08:41:50:958',2,0.000277,0.000001,2
622,'2026/05/06 08:41:50:992',2,0.000568,0.000002,2
623,'2026/05/06 08:41:51:025',2,0.00045,0.000001,2
624,'2026/05/06 08:41:51:062',2,0.000354,0.000001,2
625,'2026/05/06 08:41:51:092',2,0.000349,0.000001,2
626,'2026/05/06 08:41:51:127',2,0.000453,0.000001,2
627,'2026/05/06 08:41:51:158',2,0.000298,0.000001,2
628,'2026/05/06 08:41:51:192',2,0.00037,0.000001,2
629,'2026/05/06 08:41:51:225',2,0.000395,0.000001,2
630,'2026/05/06 08:41:51:258',2,0.000371,0.000001,2
631,'2026/05/06 08:41:51:292',2,0.000491,0.000001,2
632,'2026/05/06 08:41:51:325',2,0.000333,0.000001,2
633,'2026/05/06 08:41:51:360',2,0.000348,0.000001,2
634,'2026/05/06 08:41:51:394',2,0.000603,0.000002,2
635,'2026/05/06 08:41:51:425',2,0.000313,0.000001,2
636,'2026/05/06 08:41:51:458',2,0.000496,0.000003,2
637,'2026/05/06 08:41:51:492',2,0.000574,0.000003,2
638,'2026/05/06 08:41:51:525',2,0.000387,0.000001,2
639,'2026/05/06 08:41:51:559',2,0.00034,0.000001,2
640,'2026/05/06 08:41:51:592',2,0.00034,0.000001,2
641,'2026/05/06 08:41:51:625',2,0.000315,0.000001,2
642,'2026/05/06 08:41:51:659',2,0.000487,0.000002,2
643,'2026/05/06 08:41:51:692',2,0.000451,0.000001,2
644,'2026/05/06 08:41:51:726',2,0.000405,0.000001,2
645,'2026/05/06 08:41:51:758',2,0.000321,0.000001,2
646,'2026/05/06 08:41:51:791',2,0.000338,0.000001,2
647,'2026/05/06 08:41:51:824',2,0.000415,0.000001,2
648,'2026/05/06 08:41:51:858',2,0.000436,0.000001,2
649,'2026/05/06 08:41:51:896',2,0.000294,0.000001,2
650,'2026/05/06 08:41:51:925',2,0.000537,0.000003,2
651,'2026/05/06 08:41:51:958',2,0.000423,0.000002,2
652,'2026/05/06 08:41:51:993',2,0.000466,0.000002,2
653,'2026/05/06 08:41:52:025',2,0.000508,0.000002,2
654,'2026/05/06 08:41:52:060',2,0.000317,0.000001,2
655,'2026/05/06 08:41:52:092',2,0.000336,0.000001,2
656,'2026/05/06 08:41:52:125',2,0.000334,0.000001,2
657,'2026/05/06 08:41:52:158',2,0.000335,0.000001,2
658,'2026/05/06 08:41:52:192',2,0.000385,0.000001,2
659,'2026/05/06 08:41:52:225',2,0.000562,0.000003,2
660,'2026/05/06 08:41:52:258',2,0.000319,0.000001,2
661,'2026/05/06 08:41:52:293',2,0.000356,0.000001,2
662,'2026/05/06 08:41:52:324',2,0.000262,0.000001,2
663,'2026/05/06 08:41:52:358',2,0.000389,0.000001,2
664,'2026/05/06 08:41:52:393',2,0.000473,0.000002,2
665,'2026/05/06 08:41:52:426',2,0.00033,0.000001,2
666,'2026/05/06 08:41:52:459',2,0.000525,0.000002,2
667,'2026/05/06 08:41:52:492',2,0.000355,0.000001,2
668,'2026/05/06 08:41:52:525',2,0.000545,0.000002,2
669,'2026/05/06 08:41:52:559',2,0.000371,0.000001,2
670,'2026/05/06 08:41:52:609',2,0.000563,0.000002,2
671,'2026/05/06 08:41:52:642',2,0.00041,0.000002,2
672,'2026/05/06 08:41:52:675',2,0.000452,0.000002,2
673,'2026/05/06 08:41:52:709',2,0.000426,0.000001,2
674,'2026/05/06 08:41:52:742',2,0.000537,0.000002,2
675,'2026/05/06 08:41:52:775',2,0.000301,0.000001,2
676,'2026/05/06 08:41:52:809',2,0.000347,0.000001,2
677,'2026/05/06 08:41:52:842',2,0.000294,0.000001,2
678,'2026/05/06 08:41:52:875',2,0.000532,0.000002,2
679,'2026/05/06 08:41:52:908',2,0.000301,0.000001,2
680,'2026/05/06 08:41:52:943',2,0.000295,0.000001,2
681,'2026/05/06 08:41:52:975',2,0.000463,0.000001,2
682,'2026/05/06 08:41:53:010',2,0.000276,0,2
683,'2026/05/06 08:41:53:042',2,0.00029,0.000001,2
684,'2026/05/06 08:41:53:074',2,0.00029,0.000001,2
685,'2026/05/06 08:41:53:107',2,0.000222,0,2
686,'2026/05/06 08:41:53:141',2,0.000284,0.000001,2
687,'2026/05/06 08:41:53:176',2,0.000455,0.000002,2
688,'2026/05/06 08:41:53:209',2,0.000279,0,2
689,'2026/05/06 08:41:53:242',2,0.000511,0.000001,2
690,'2026/05/06 08:41:53:275',2,0.000469,0.000002,2
691,'2026/05/06 08:41:53:308',2,0.000371,0.000001,2
692,'2026/05/06 08:41:53:341',2,0.000294,0,2
693,'2026/05/06 08:41:53:376',2,0.000346,0.000001,2
694,'2026/05/06 08:41:53:410',2,0.000293,0.000001,2
695,'2026/05/06 08:41:53:442',2,0.000287,0,2
696,'2026/05/06 08:41:53:475',2,0.000352,0.000001,2
697,'2026/05/06 08:41:53:508',2,0.000331,0.000001,2
698,'2026/05/06 08:41:53:542',2,0.000617,0.000002,2
699,'2026/05/06 08:41:53:575',2,0.000433,0.000001,2
700,'2026/05/06 08:41:53:606',2,0.000382,0.000001,2
701,'2026/05/06 08:41:53:637',2,0.000294,0.000001,2
702,'2026/05/06 08:41:53:667',2,0.000346,0.000001,2
703,'2026/05/06 08:41:53:700',2,0.000354,0.000001,2
704,'2026/05/06 08:41:53:733',2,0.000477,0.000002,2
705,'2026/05/06 08:41:53:766',2,0.000416,0.000001,2
706,'2026/05/06 08:41:53:799',2,0.00053,0.000002,2
707,'2026/05/06 08:41:53:833',2,0.000234,0,2
708,'2026/05/06 08:41:53:867',2,0.000365,0.000001,2
709,'2026/05/06 08:41:53:900',2,0.000499,0.000001,2
710,'2026/05/06 08:41:53:933',2,0.000348,0.000001,2
711,'2026/05/06 08:41:53:968',2,0.00032,0.000001,2
712,'2026/05/06 08:41:54:001',2,0.000311,0.000001,2
713,'2026/05/06 08:41:54:033',2,0.000324,0.000001,2
714,'2026/05/06 08:41:54:066',2,0.000626,0.000003,2
715,'2026/05/06 08:41:54:099',2,0.000225,0,2
716,'2026/05/06 08:41:54:133',2,0.000228,0,2
717,'2026/05/06 08:41:54:167',2,0.000272,0,2
718,'2026/05/06 08:41:54:199',2,0.000342,0.000001,2
719,'2026/05/06 08:41:54:233',2,0.000561,0.000004,2
720,'2026/05/06 08:41:54:266',2,0.000344,0.000002,2
721,'2026/05/06 08:41:54:300',2,0.000388,0.000003,2
722,'2026/05/06 08:41:54:332',2,0.000531,0.000002,2
723,'2026/05/06 08:41:54:366',2,0.000294,0,2
724,'2026/05/06 08:41:54:400',2,0.000251,0,2
725,'2026/05/06 08:41:54:434',2,0.00041,0.000001,2
726,'2026/05/06 08:41:54:467',2,0.00033,0.000001,2
727,'2026/05/06 08:41:54:512',2,0.000361,0.000001,2
728,'2026/05/06 08:41:54:555',2,0.000244,0.000001,2
729,'2026/05/06 08:41:54:588',2,0.000353,0.000001,2
730,'2026/05/06 08:41:54:621',2,0.000394,0.000001,2
731,'2026/05/06 08:41:54:655',2,0.000382,0.000001,2
732,'2026/05/06 08:41:54:691',2,0.000554,0.000002,2
733,'2026/05/06 08:41:54:721',2,0.000293,0,2
734,'2026/05/06 08:41:54:755',2,0.000251,0,2
735,'2026/05/06 08:41:54:788',2,0.000321,0.000001,2
736,'2026/05/06 08:41:54:822',2,0.00026,0,2
737,'2026/05/06 08:41:54:855',2,0.000341,0.000001,2
738,'2026/05/06 08:41:54:887',2,0.000338,0.000001,2
739,'2026/05/06 08:41:54:922',2,0.000419,0.000001,2
740,'2026/05/06 08:41:54:955',2,0.000412,0.000001,2
741,'2026/05/06 08:41:54:991',2,0.000252,0,2
742,'2026/05/06 08:41:55:021',2,0.000282,0,2
743,'2026/05/06 08:41:55:054',2,0.000368,0.000001,2
744,'2026/05/06 08:41:55:088',2,0.000312,0.000001,2
745,'2026/05/06 08:41:55:121',2,0.00036,0.000001,2
746,'2026/05/06 08:41:55:154',2,0.00038,0.000001,2
747,'2026/05/06 08:41:55:188',2,0.000343,0.000001,2
748,'2026/05/06 08:41:55:222',2,0.000251,0,2
749,'2026/05/06 08:41:55:254',2,0.000453,0.000001,2
750,'2026/05/06 08:41:55:289',2,0.000215,0,2
751,'2026/05/06 08:41:55:321',2,0.000381,0.000001,2
752,'2026/05/06 08:41:55:355',2,0.000376,0.000001,2
753,'2026/05/06 08:41:55:387',2,0.00054,0.000001,2
754,'2026/05/06 08:41:55:422',2,0.000449,0.000001,2
755,'2026/05/06 08:41:55:455',2,0.000396,0.000001,2
756,'2026/05/06 08:41:55:490',2,0.000275,0.000001,2
757,'2026/05/06 08:41:55:521',2,0.000303,0.000001,2
758,'2026/05/06 08:41:55:556',2,0.000391,0.000001,2
759,'2026/05/06 08:41:55:587',2,0.000223,0,2
760,'2026/05/06 08:41:55:621',2,0.000384,0.000001,2
761,'2026/05/06 08:41:55:654',2,0.000364,0.000001,2
762,'2026/05/06 08:41:55:688',2,0.000358,0.000001,2
763,'2026/05/06 08:41:55:722',2,0.000314,0.000001,2
764,'2026/05/06 08:41:55:755',2,0.000319,0.000001,2
765,'2026/05/06 08:41:55:787',2,0.000293,0.000001,2
766,'2026/05/06 08:41:55:822',2,0.000343,0.000001,2
767,'2026/05/06 08:41:55:854',2,0.000375,0.000001,2
768,'2026/05/06 08:41:55:887',2,0.000293,0.000001,2
769,'2026/05/06 08:41:55:922',2,0.000494,0.000002,2
770,'2026/05/06 08:41:55:957',2,0.000385,0.000001,2
771,'2026/05/06 08:41:55:988',2,0.00045,0.000002,2
772,'2026/05/06 08:41:56:023',2,0.000316,0.000001,2
773,'2026/05/06 08:41:56:068',2,0.000346,0.000001,2
774,'2026/05/06 08:41:56:110',2,0.000373,0.000001,2
775,'2026/05/06 08:41:56:146',2,0.000336,0.000001,2
776,'2026/05/06 08:41:56:177',2,0.00049,0.000002,2
777,'2026/05/06 08:41:56:213',2,0.000436,0.000002,2
778,'2026/05/06 08:41:56:243',2,0.000348,0.000001,2
779,'2026/05/06 08:41:56:278',2,0.000563,0.000002,2
780,'2026/05/06 08:41:56:312',2,0.000343,0.000001,2
781,'2026/05/06 08:41:56:344',2,0.000342,0.000001,2
782,'2026/05/06 08:41:56:379',2,0.000357,0.000001,2
783,'2026/05/06 08:41:56:409',2,0.0004,0.000001,2
784,'2026/05/06 08:41:56:445',2,0.000397,0.000001,2
785,'2026/05/06 08:41:56:490',2,0.000373,0.000001,2
786,'2026/05/06 08:41:56:524',2,0.000361,0.000001,2
787,'2026/05/06 08:41:56:556',2,0.000613,0.000002,2
788,'2026/05/06 08:41:56:590',2,0.000341,0.000001,2
789,'2026/05/06 08:41:56:622',2,0.00046,0.000003,2
790,'2026/05/06 08:41:56:656',2,0.00042,0.000002,2
791,'2026/05/06 08:41:56:692',2,0.000424,0.000002,2
792,'2026/05/06 08:41:56:723',2,0.000526,0.000002,2
793,'2026/05/06 08:41:56:757',2,0.000387,0.000001,2
794,'2026/05/06 08:41:56:790',2,0.000417,0.000001,2
795,'2026/05/06 08:41:56:823',2,0.000379,0.000001,2
796,'2026/05/06 08:41:56:857',2,0.000373,0.000001,2
797,'2026/05/06 08:41:56:891',2,0.000353,0.000001,2
798,'2026/05/06 08:41:56:924',2,0.000346,0.000001,2
799,'2026/05/06 08:41:56:957',2,0.000414,0.000001,2
800,'2026/05/06 08:41:56:991',2,0.000505,0.000002,2
801,'2026/05/06 08:41:57:022',2,0.000534,0.000002,2
802,'2026/05/06 08:41:57:057',2,0.000407,0.000001,2
803,'2026/05/06 08:41:57:089',2,0.000487,0.000003,2
804,'2026/05/06 08:41:57:124',2,0.000508,0.000002,2
805,'2026/05/06 08:41:57:156',2,0.000425,0.000001,2
806,'2026/05/06 08:41:57:192',2,0.000499,0.000001,2
807,'2026/05/06 08:41:57:225',2,0.000321,0.000001,2
808,'2026/05/06 08:41:57:257',2,0.000276,0.000001,2
809,'2026/05/06 08:41:57:292',2,0.000358,0.000001,2
810,'2026/05/06 08:41:57:322',2,0.000308,0.000001,2
811,'2026/05/06 08:41:57:357',2,0.000466,0.000002,2
812,'2026/05/06 08:41:57:392',2,0.000463,0.000002,2
813,'2026/05/06 08:41:57:423',2,0.000253,0,2
814,'2026/05/06 08:41:57:457',2,0.000419,0.000001,2
815,'2026/05/06 08:41:57:491',2,0.000269,0.000001,2
816,'2026/05/06 08:41:57:523',2,0.000382,0.000001,2
817,'2026/05/06 08:41:57:558',2,0.000349,0.000001,2
818,'2026/05/06 08:41:57:591',2,0.000405,0.000001,2
819,'2026/05/06 08:41:57:624',2,0.000285,0.000001,2
820,'2026/05/06 08:41:57:656',2,0.000549,0.000002,2
821,'2026/05/06 08:41:57:691',2,0.00035,0.000001,2
822,'2026/05/06 08:41:57:724',2,0.000377,0.000001,2
823,'2026/05/06 08:41:57:758',2,0.000431,0.000001,2
824,'2026/05/06 08:41:57:791',2,0.000406,0.000001,2
825,'2026/05/06 08:41:57:824',2,0.000437,0.000002,2
826,'2026/05/06 08:41:57:857',2,0.000311,0.000001,2
827,'2026/05/06 08:41:57:889',2,0.000417,0.000001,2
828,'2026/05/06 08:41:57:923',2,0.000449,0.000001,2
829,'2026/05/06 08:41:57:956',2,0.000296,0.000001,2
830,'2026/05/06 08:41:57:991',2,0.000426,0.000002,2
831,'2026/05/06 08:41:58:026',2,0.000502,0.000002,2
832,'2026/05/06 08:41:58:056',2,0.00044,0.000002,2
833,'2026/05/06 08:41:58:088',2,0.000276,0.000001,2
834,'2026/05/06 08:41:58:123',2,0.000622,0.000003,2
835,'2026/05/06 08:41:58:155',2,0.000295,0.000001,2
836,'2026/05/06 08:41:58:189',2,0.000239,0,2
837,'2026/05/06 08:41:58:223',2,0.00033,0.000001,2
838,'2026/05/06 08:41:58:256',2,0.000253,0.000001,2
839,'2026/05/06 08:41:58:292',2,0.000337,0.000001,2
840,'2026/05/06 08:41:58:323',2,0.000494,0.000002,2
841,'2026/05/06 08:41:58:357',2,0.000321,0.000001,2
842,'2026/05/06 08:41:58:391',2,0.000479,0.000002,2
843,'2026/05/06 08:41:58:425',2,0.000345,0.000001,2
844,'2026/05/06 08:41:58:457',2,0.000332,0.000001,2
845,'2026/05/06 08:41:58:491',2,0.000225,0,2
846,'2026/05/06 08:41:58:522',2,0.000343,0.000001,2
847,'2026/05/06 08:41:58:557',2,0.000297,0.000001,2
848,'2026/05/06 08:41:58:591',2,0.000327,0.000001,2
849,'2026/05/06 08:41:58:625',2,0.000307,0.000001,2
850,'2026/05/06 08:41:58:657',2,0.000605,0.000002,2
851,'2026/05/06 08:41:58:691',2,0.000372,0.000001,2
852,'2026/05/06 08:41:58:723',2,0.000433,0.000001,2
853,'2026/05/06 08:41:58:759',2,0.000315,0.000001,2
854,'2026/05/06 08:41:58:791',2,0.000395,0.000001,2
855,'2026/05/06 08:41:58:823',2,0.000391,0.000001,2
856,'2026/05/06 08:41:58:856',2,0.000436,0.000001,2
857,'2026/05/06 08:41:58:892',2,0.000398,0.000001,2
858,'2026/05/06 08:41:58:923',2,0.000359,0.000001,2
859,'2026/05/06 08:41:58:956',2,0.000428,0.000001,2
860,'2026/05/06 08:41:58:991',2,0.000225,0,2
861,'2026/05/06 08:41:59:024',2,0.000372,0.000001,2
862,'2026/05/06 08:41:59:063',2,0.000351,0.000001,2
863,'2026/05/06 08:41:59:093',2,0.000378,0.000001,2
864,'2026/05/06 08:41:59:125',2,0.000265,0,2
865,'2026/05/06 08:41:59:158',2,0.000325,0.000001,2
866,'2026/05/06 08:41:59:192',2,0.000301,0.000001,2
867,'2026/05/06 08:41:59:225',2,0.000437,0.000002,2
868,'2026/05/06 08:41:59:257',2,0.000226,0,2
869,'2026/05/06 08:41:59:292',2,0.000515,0.000002,2
870,'2026/05/06 08:41:59:324',2,0.000272,0,2
871,'2026/05/06 08:41:59:358',2,0.000378,0.000002,2
872,'2026/05/06 08:41:59:392',2,0.000499,0.000002,2
873,'2026/05/06 08:41:59:423',2,0.0004,0.000003,2
874,'2026/05/06 08:41:59:458',2,0.000383,0.000003,2
875,'2026/05/06 08:41:59:492',2,0.000294,0.000001,2
876,'2026/05/06 08:41:59:524',2,0.000352,0.000001,2
877,'2026/05/06 08:41:59:558',2,0.000323,0.000001,2
878,'2026/05/06 08:41:59:592',2,0.000392,0.000001,2
879,'2026/05/06 08:41:59:624',2,0.000383,0.000001,2
880,'2026/05/06 08:41:59:657',2,0.000418,0.000001,2
881,'2026/05/06 08:41:59:691',2,0.000253,0,2
882,'2026/05/06 08:41:59:725',2,0.0002,0.000001,2
883,'2026/05/06 08:41:59:766',2,0.00036,0.000001,2
884,'2026/05/06 08:41:59:807',2,0.000388,0.000001,2
885,'2026/05/06 08:41:59:841',2,0.000341,0.000001,2
886,'2026/05/06 08:41:59:875',2,0.000449,0.000001,2
887,'2026/05/06 08:41:59:921',2,0.000432,0.000001,2
888,'2026/05/06 08:41:59:965',2,0.000262,0.000001,2
889,'2026/05/06 08:42:00:000',2,0.000378,0.000001,2
890,'2026/05/06 08:42:00:030',2,0.000292,0.000001,2
891,'2026/05/06 08:42:00:062',2,0.000453,0.000001,2
892,'2026/05/06 08:42:00:098',2,0.000392,0.000001,2
893,'2026/05/06 08:42:00:130',2,0.00035,0.000001,2
894,'2026/05/06 08:42:00:165',2,0.000225,0.000001,2
895,'2026/05/06 08:42:00:197',2,0.000298,0.000001,2
896,'2026/05/06 08:42:00:231',2,0.000341,0.000001,2
897,'2026/05/06 08:42:00:272',2,0.000303,0.000001,2
898,'2026/05/06 08:42:00:314',2,0.000412,0.000001,2
899,'2026/05/06 08:42:00:350',2,0.000326,0.000001,2
900,'2026/05/06 08:42:00:395',2,0.000402,0.000001,2
901,'2026/05/06 08:42:00:435',2,0.000277,0.000001,2
902,'2026/05/06 08:42:00:469',2,0.000456,0.000001,2
903,'2026/05/06 08:42:00:502',2,0.000348,0.000001,2
904,'2026/05/06 08:42:00:536',2,0.000307,0.000001,2
905,'2026/05/06 08:42:00:571',2,0.000425,0.000001,2
906,'2026/05/06 08:42:00:604',2,0.000431,0.000002,2
907,'2026/05/06 08:42:00:636',2,0.000348,0.000001,2
908,'2026/05/06 08:42:00:669',2,0.000272,0.000001,2
909,'2026/05/06 08:42:00:702',2,0.000226,0,2
910,'2026/05/06 08:42:00:737',2,0.000424,0.000001,2
911,'2026/05/06 08:42:00:772',2,0.000251,0,2
912,'2026/05/06 08:42:00:804',2,0.00066,0.000003,2
913,'2026/05/06 08:42:00:836',2,0.000342,0.000001,2
914,'2026/05/06 08:42:00:870',2,0.00028,0,2
915,'2026/05/06 08:42:00:904',2,0.000322,0.000001,2
916,'2026/05/06 08:42:00:943',2,0.000385,0.000001,2
917,'2026/05/06 08:42:00:976',2,0.000299,0,2
918,'2026/05/06 08:42:01:011',2,0.000418,0.000001,2
919,'2026/05/06 08:42:01:042',2,0.000295,0.000001,2
920,'2026/05/06 08:42:01:078',2,0.00047,0.000001,2
921,'2026/05/06 08:42:01:109',2,0.00047,0.000001,2
922,'2026/05/06 08:42:01:143',2,0.00034,0.000001,2
923,'2026/05/06 08:42:01:175',2,0.000214,0,2
924,'2026/05/06 08:42:01:209',2,0.000277,0,2
925,'2026/05/06 08:42:01:244',2,0.000257,0.000001,2
926,'2026/05/06 08:42:01:275',2,0.000465,0.000002,2
927,'2026/05/06 08:42:01:308',2,0.000339,0.000001,2
928,'2026/05/06 08:42:01:343',2,0.00051,0.000002,2
929,'2026/05/06 08:42:01:375',2,0.000408,0.000002,2
930,'2026/05/06 08:42:01:410',2,0.000321,0.000001,2
931,'2026/05/06 08:42:01:443',2,0.000473,0.000001,2
932,'2026/05/06 08:42:01:476',2,0.000334,0.000001,2
933,'2026/05/06 08:42:01:508',2,0.000356,0.000001,2
934,'2026/05/06 08:42:01:554',2,0.000356,0.000001,2
935,'2026/05/06 08:42:01:599',2,0.000437,0.000001,2
936,'2026/05/06 08:42:01:633',2,0.000318,0.000001,2
937,'2026/05/06 08:42:01:666',2,0.000327,0.000001,2
938,'2026/05/06 08:42:01:700',2,0.000354,0.000001,2
939,'2026/05/06 08:42:01:733',2,0.000526,0.000002,2
940,'2026/05/06 08:42:01:766',2,0.000391,0.000001,2
941,'2026/05/06 08:42:01:798',2,0.000644,0.000003,2
942,'2026/05/06 08:42:01:832',2,0.000444,0.000001,2
943,'2026/05/06 08:42:01:866',2,0.000384,0.000001,2
944,'2026/05/06 08:42:01:900',2,0.000331,0.000001,2
945,'2026/05/06 08:42:01:942',2,0.000378,0.000001,2
946,'2026/05/06 08:42:01:984',2,0.000325,0.000001,2
947,'2026/05/06 08:42:02:017',2,0.000372,0.000001,2
948,'2026/05/06 08:42:02:051',2,0.000467,0.000002,2
949,'2026/05/06 08:42:02:083',2,0.0003,0.000001,2
950,'2026/05/06 08:42:02:116',2,0.000384,0.000001,2
951,'2026/05/06 08:42:02:149',2,0.000347,0.000001,2
952,'2026/05/06 08:42:02:183',2,0.000393,0.000001,2
953,'2026/05/06 08:42:02:216',2,0.000264,0.000001,2
954,'2026/05/06 08:42:02:250',2,0.000527,0.000003,2
955,'2026/05/06 08:42:02:282',2,0.000434,0.000004,2
956,'2026/05/06 08:42:02:317',2,0.000385,0.000001,2
957,'2026/05/06 08:42:02:351',2,0.000441,0.000001,2
958,'2026/05/06 08:42:02:383',2,0.000375,0.000002,2
959,'2026/05/06 08:42:02:417',2,0.000282,0.000001,2
960,'2026/05/06 08:42:02:450',2,0.000539,0.000003,2
961,'2026/05/06 08:42:02:483',2,0.000438,0.000002,2
962,'2026/05/06 08:42:02:517',2,0.000299,0.000001,2
963,'2026/05/06 08:42:02:553',2,0.000394,0.000002,2
964,'2026/05/06 08:42:02:584',2,0.000363,0.000001,2
965,'2026/05/06 08:42:02:618',2,0.000342,0.000001,2
966,'2026/05/06 08:42:02:650',2,0.000308,0.000001,2
967,'2026/05/06 08:42:02:683',2,0.0005,0.000002,2
968,'2026/05/06 08:42:02:717',2,0.000346,0.000001,2
969,'2026/05/06 08:42:02:751',2,0.000414,0.000001,2
970,'2026/05/06 08:42:02:783',2,0.000319,0.000001,2
971,'2026/05/06 08:42:02:817',2,0.00037,0.000001,2
972,'2026/05/06 08:42:02:849',2,0.000609,0.000002,2
973,'2026/05/06 08:42:02:882',2,0.000291,0.000001,2
974,'2026/05/06 08:42:02:918',2,0.000329,0.000001,2
975,'2026/05/06 08:42:02:949',2,0.000377,0.000001,2
976,'2026/05/06 08:42:02:983',2,0.000402,0.000001,2
977,'2026/05/06 08:42:03:017',2,0.000407,0.000001,2
978,'2026/05/06 08:42:03:049',2,0.000572,0.000003,2
979,'2026/05/06 08:42:03:084',2,0.000443,0.000001,2
980,'2026/05/06 08:42:03:116',2,0.000223,0,2
981,'2026/05/06 08:42:03:150',2,0.000336,0.000001,2
982,'2026/05/06 08:42:03:184',2,0.000408,0.000001,2
983,'2026/05/06 08:42:03:217',2,0.000387,0.000001,2
984,'2026/05/06 08:42:03:249',2,0.000313,0.000001,2
985,'2026/05/06 08:42:03:284',2,0.000289,0.000001,2
986,'2026/05/06 08:42:17:252',3,0.000074,0,1
987,'2026/05/06 08:42:17:286',3,0.000071,0,1
988,'2026/05/06 08:42:17:319',3,0.000019,0,1
989,'2026/05/06 08:42:17:354',3,0.000008,0,1
990,'2026/05/06 08:42:17:384',3,0.000025,0,1
991,'2026/05/06 08:42:17:419',3,0.000017,0,1
992,'2026/05/06 08:42:17:452',3,0.000028,0,1
993,'2026/05/06 08:42:17:487',3,0.000117,0,1
994,'2026/05/06 08:42:17:518',3,0.000196,0.000001,1
995,'2026/05/06 08:42:17:552',3,0.000207,0.000001,1
996,'2026/05/06 08:42:17:587',3,0.000219,0.000001,1
997,'2026/05/06 08:42:17:620',3,0.000093,0,1
998,'2026/05/06 08:42:17:651',3,0.000037,0,1
999,'2026/05/06 08:42:17:686',3,0.000024,0,1
1000,'2026/05/06 08:42:17:718',3,0.000012,0,1
1001,'2026/05/06 08:42:17:753',3,0.000134,0,1
1002,'2026/05/06 08:42:17:785',3,0.00013,0,1
1003,'2026/05/06 08:42:17:819',3,0.000031,0,1
1004,'2026/05/06 08:42:17:851',3,0.000012,0,1
1005,'2026/05/06 08:42:17:886',3,0.000062,0,1
1006,'2026/05/06 08:42:17:918',3,0.000075,0,1
1007,'2026/05/06 08:42:17:953',3,0.000057,0,1
1008,'2026/05/06 08:42:17:986',3,0.000076,0,1
1009,'2026/05/06 08:42:18:018',3,0.000044,0,1
1010,'2026/05/06 08:42:18:053',3,0.000025,0,1
1011,'2026/05/06 08:42:18:086',3,0.00005,0,1
1012,'2026/05/06 08:42:18:118',3,0.000017,0,1
1013,'2026/05/06 08:42:18:151',3,0.00007,0,1
1014,'2026/05/06 08:42:18:188',3,0.000047,0,1
1015,'2026/05/06 08:42:18:219',3,0.000077,0,1
1016,'2026/05/06 08:42:18:251',3,0.000131,0,1
1017,'2026/05/06 08:42:18:285',3,0.000115,0,1
1018,'2026/05/06 08:42:18:318',3,0.000036,0,1
1019,'2026/05/06 08:42:18:353',3,0.000053,0,1
1020,'2026/05/06 08:42:18:385',3,0.000045,0,1
1021,'2026/05/06 08:42:18:418',3,0.000065,0,1
1022,'2026/05/06 08:42:18:453',3,0.000042,0,1
1023,'2026/05/06 08:42:18:487',3,0.000017,0,1
1024,'2026/05/06 08:42:18:518',3,0.000012,0,1
1025,'2026/05/06 08:42:18:552',3,0.00001,0,1
1026,'2026/05/06 08:42:18:586',3,0.000071,0,1
1027,'2026/05/06 08:42:18:618',3,0.000043,0,1
1028,'2026/05/06 08:42:18:653',3,0.000039,0,1
1029,'2026/05/06 08:42:18:686',3,0.000197,0,1
1030,'2026/05/06 08:42:18:720',3,0.00028,0.000001,1
1031,'2026/05/06 08:42:18:754',3,0.00004,0,1
1032,'2026/05/06 08:42:18:785',3,0.000025,0,1
1033,'2026/05/06 08:42:18:818',3,0.000057,0,1
1034,'2026/05/06 08:42:18:853',3,0.000109,0,1
1035,'2026/05/06 08:42:18:887',3,0.000027,0,1
1036,'2026/05/06 08:42:18:919',3,0.00003,0,1
1037,'2026/05/06 08:42:18:953',3,0.00001,0,1
1038,'2026/05/06 08:42:18:986',3,0.000007,0,1
1039,'2026/05/06 08:42:19:021',3,0.000015,0,1
1040,'2026/05/06 08:42:19:053',3,0.000014,0,1
1041,'2026/05/06 08:42:19:086',3,0.000007,0,1
1042,'2026/05/06 08:42:19:118',3,0.000005,0,1
1043,'2026/05/06 08:42:19:151',3,0.000005,0,1
1044,'2026/05/06 08:42:19:186',3,0.000004,0,1
1045,'2026/05/06 08:42:19:218',3,0.000004,0,1
1046,'2026/05/06 08:42:19:252',3,0.000004,0,1
1047,'2026/05/06 08:42:19:286',3,0.000005,0,1
1048,'2026/05/06 08:42:19:321',3,0.000004,0,1
1049,'2026/05/06 08:42:19:353',3,0.000004,0,1
1050,'2026/05/06 08:42:19:386',3,0.000004,0,1
1051,'2026/05/06 08:42:19:418',3,0.000004,0,1
1052,'2026/05/06 08:42:19:451',3,0.000003,0,1
1053,'2026/05/06 08:42:19:486',3,0.000075,0,1
1054,'2026/05/06 08:42:19:518',3,0.00009,0,1
1055,'2026/05/06 08:42:19:553',3,0.000075,0,1
1056,'2026/05/06 08:42:19:586',3,0.000064,0,1
1057,'2026/05/06 08:42:19:620',3,0.000157,0,1
1058,'2026/05/06 08:42:19:653',3,0.000284,0.000002,1
1059,'2026/05/06 08:42:19:687',3,0.000413,0.000004,1
1060,'2026/05/06 08:42:19:718',3,0.000317,0.000002,1
1061,'2026/05/06 08:42:19:753',3,0.000272,0.000002,1
1062,'2026/05/06 08:42:19:785',3,0.00016,0,1
1063,'2026/05/06 08:42:19:818',3,0.000108,0,1
1064,'2026/05/06 08:42:19:852',3,0.000109,0,1
1065,'2026/05/06 08:42:19:885',3,0.00011,0,1
1066,'2026/05/06 08:42:19:920',3,0.000063,0,1
1067,'2026/05/06 08:42:19:952',3,0.000057,0,1
1068,'2026/05/06 08:42:19:987',3,0.000029,0,1
1069,'2026/05/06 08:42:20:020',3,0.000018,0,1
1070,'2026/05/06 08:42:20:053',3,0.000008,0,1
1071,'2026/05/06 08:42:20:086',3,0.000005,0,1
1072,'2026/05/06 08:42:20:118',3,0.000004,0,1
1073,'2026/05/06 08:42:20:151',3,0.000005,0,1
1074,'2026/05/06 08:42:20:186',3,0.000005,0,1
1075,'2026/05/06 08:42:20:218',3,0.000008,0,1
1076,'2026/05/06 08:42:20:252',3,0.000061,0,1
1077,'2026/05/06 08:42:20:285',3,0.00005,0,1
1078,'2026/05/06 08:42:20:319',3,0.000062,0,1
1079,'2026/05/06 08:42:20:353',3,0.000136,0,1
1080,'2026/05/06 08:42:20:386',3,0.000252,0.000001,1
1081,'2026/05/06 08:42:20:420',3,0.000116,0,1
1082,'2026/05/06 08:42:20:453',3,0.000056,0,1
1083,'2026/05/06 08:42:20:486',3,0.000147,0.000001,1
1084,'2026/05/06 08:42:20:520',3,0.000071,0,1
1085,'2026/05/06 08:42:20:553',3,0.000015,0,1
1086,'2026/05/06 08:42:20:586',3,0.000017,0,1
1087,'2026/05/06 08:42:20:621',3,0.000071,0,1
1088,'2026/05/06 08:42:20:653',3,0.000076,0,1
1089,'2026/05/06 08:42:20:684',3,0.000077,0,1
1090,'2026/05/06 08:42:20:720',3,0.000058,0,1
1091,'2026/05/06 08:42:20:753',3,0.000071,0,1
1092,'2026/05/06 08:42:20:785',3,0.000234,0.000001,1
1093,'2026/05/06 08:42:20:818',3,0.000209,0.000001,1
1094,'2026/05/06 08:42:20:853',3,0.000151,0,1
1095,'2026/05/06 08:42:20:885',3,0.000089,0,1
1096,'2026/05/06 08:42:20:921',3,0.000135,0.000001,1
1097,'2026/05/06 08:42:20:954',3,0.000056,0,1
1098,'2026/05/06 08:42:20:986',3,0.000029,0,1
1099,'2026/05/06 08:42:21:020',3,0.000116,0,1
1100,'2026/05/06 08:42:21:053',3,0.000125,0,1
1101,'2026/05/06 08:42:21:085',3,0.000063,0,1
1102,'2026/05/06 08:42:21:121',3,0.000066,0,1
1103,'2026/05/06 08:42:21:153',3,0.000112,0,1
1104,'2026/05/06 08:42:21:188',3,0.000025,0,1
1105,'2026/05/06 08:42:21:218',3,0.000014,0,1
1106,'2026/05/06 08:42:21:253',3,0.000014,0,1
1107,'2026/05/06 08:42:21:287',3,0.000125,0,1
1108,'2026/05/06 08:42:21:320',3,0.000219,0.000001,1
1109,'2026/05/06 08:42:21:353',3,0.000224,0.000001,1
1110,'2026/05/06 08:42:21:385',3,0.000114,0,1
1111,'2026/05/06 08:42:21:418',3,0.000059,0,1
1112,'2026/05/06 08:42:21:452',3,0.000024,0,1
1113,'2026/05/06 08:42:21:486',3,0.000045,0,1
1114,'2026/05/06 08:42:21:522',3,0.000023,0,1
1115,'2026/05/06 08:42:21:552',3,0.000026,0,1
1116,'2026/05/06 08:42:21:587',3,0.000041,0,1
1117,'2026/05/06 08:42:21:619',3,0.000025,0,1
1118,'2026/05/06 08:42:21:653',3,0.00001,0,1
1119,'2026/05/06 08:42:21:686',3,0.000005,0,1
1120,'2026/05/06 08:42:21:719',3,0.000004,0,1
1121,'2026/05/06 08:42:21:752',3,0.000004,0,1
1122,'2026/05/06 08:42:21:786',3,0.000004,0,1
1123,'2026/05/06 08:42:21:820',3,0.000004,0,1
1124,'2026/05/06 08:42:21:852',3,0.000004,0,1
1125,'2026/05/06 08:42:21:886',3,0.000004,0,1
1126,'2026/05/06 08:42:21:919',3,0.000004,0,1
1127,'2026/05/06 08:42:21:952',3,0.000004,0,1
1128,'2026/05/06 08:42:21:984',3,0.000005,0,1
1129,'2026/05/06 08:42:22:018',3,0.000006,0,1
1130,'2026/05/06 08:42:22:054',3,0.000029,0,1
1131,'2026/05/06 08:42:22:086',3,0.000014,0,1
1132,'2026/05/06 08:42:22:119',3,0.000024,0,1
1133,'2026/05/06 08:42:22:153',3,0.000049,0,1
1134,'2026/05/06 08:42:22:187',3,0.000041,0,1
1135,'2026/05/06 08:42:22:218',3,0.00003,0,1
1136,'2026/05/06 08:42:22:255',3,0.000081,0,1
1137,'2026/05/06 08:42:22:286',3,0.000076,0,1
1138,'2026/05/06 08:42:22:321',3,0.000056,0,1
1139,'2026/05/06 08:42:22:355',3,0.000063,0,1
1140,'2026/05/06 08:42:22:386',3,0.000092,0,1
1141,'2026/05/06 08:42:22:421',3,0.00002,0,1
1142,'2026/05/06 08:42:22:453',3,0.000085,0,1
1143,'2026/05/06 08:42:22:487',3,0.00002,0,1
1144,'2026/05/06 08:42:22:518',3,0.000013,0,1
1145,'2026/05/06 08:42:22:553',3,0.000041,0,1
1146,'2026/05/06 08:42:22:587',3,0.000027,0,1
1147,'2026/05/06 08:42:22:618',3,0.000041,0,1
1148,'2026/05/06 08:42:22:654',3,0.00012,0,1
1149,'2026/05/06 08:42:22:686',3,0.000092,0,1
1150,'2026/05/06 08:42:22:719',3,0.000091,0,1
1151,'2026/05/06 08:42:22:752',3,0.00011,0,1
1152,'2026/05/06 08:42:22:786',3,0.000095,0,1
1153,'2026/05/06 08:42:22:821',3,0.00005,0,1
1154,'2026/05/06 08:42:22:852',3,0.000114,0,1
1155,'2026/05/06 08:42:22:886',3,0.000083,0,1
1156,'2026/05/06 08:42:22:921',3,0.000059,0,1
1157,'2026/05/06 08:42:22:953',3,0.000099,0,1
1158,'2026/05/06 08:42:22:988',3,0.000163,0.000001,1
1159,'2026/05/06 08:42:23:022',3,0.000143,0,1
1160,'2026/05/06 08:42:23:053',3,0.000078,0,1
1161,'2026/05/06 08:42:23:086',3,0.000018,0,1
1162,'2026/05/06 08:42:23:119',3,0.000019,0,1
1163,'2026/05/06 08:42:23:153',3,0.000021,0,1
1164,'2026/05/06 08:42:23:187',3,0.000205,0.000001,1
1165,'2026/05/06 08:42:23:218',3,0.000064,0,1
1166,'2026/05/06 08:42:23:253',3,0.000049,0,1
1167,'2026/05/06 08:42:23:287',3,0.000033,0,1
1168,'2026/05/06 08:42:23:318',3,0.000071,0,1
1169,'2026/05/06 08:42:23:352',3,0.000062,0,1
1170,'2026/05/06 08:42:23:386',3,0.000119,0,1
1171,'2026/05/06 08:42:23:420',3,0.000069,0,1
1172,'2026/05/06 08:42:23:452',3,0.000094,0,1
1173,'2026/05/06 08:42:23:486',3,0.000086,0,1
1174,'2026/05/06 08:42:23:519',3,0.000043,0,1
1175,'2026/05/06 08:42:23:553',3,0.000132,0,1
1176,'2026/05/06 08:42:23:587',3,0.000091,0,1
1177,'2026/05/06 08:42:23:622',3,0.00007,0,1
1178,'2026/05/06 08:42:23:653',3,0.000035,0,1
1179,'2026/05/06 08:42:23:688',3,0.00002,0,1
1180,'2026/05/06 08:42:23:721',3,0.000012,0,1
1181,'2026/05/06 08:42:23:753',3,0.000013,0,1
1182,'2026/05/06 08:42:23:786',3,0.000048,0,1
1183,'2026/05/06 08:42:23:820',3,0.000067,0,1
1184,'2026/05/06 08:42:23:852',3,0.000078,0,1
1185,'2026/05/06 08:42:23:886',3,0.000083,0,1
1186,'2026/05/06 08:42:23:921',3,0.000077,0,1
1187,'2026/05/06 08:42:23:952',3,0.000055,0,1
1188,'2026/05/06 08:42:23:987',3,0.000074,0,1
1189,'2026/05/06 08:42:24:020',3,0.000027,0,1
1190,'2026/05/06 08:42:24:053',3,0.000025,0,1
1191,'2026/05/06 08:42:24:086',3,0.000041,0,1
1192,'2026/05/06 08:42:24:120',3,0.000025,0,1
1193,'2026/05/06 08:42:24:154',3,0.000009,0,1
1194,'2026/05/06 08:42:24:186',3,0.000006,0,1
1195,'2026/05/06 08:42:24:229',3,0.000005,0,1
1196,'2026/05/06 08:42:24:271',3,0.000009,0,1
1197,'2026/05/06 08:42:24:305',3,0.000008,0,1
1198,'2026/05/06 08:42:24:338',3,0.000006,0,1
1199,'2026/05/06 08:42:24:372',3,0.000006,0,1
1200,'2026/05/06 08:42:24:404',3,0.000006,0,1
1201,'2026/05/06 08:42:24:438',3,0.000007,0,1
1202,'2026/05/06 08:42:24:471',3,0.000007,0,1
1203,'2026/05/06 08:42:24:504',3,0.000006,0,1
1204,'2026/05/06 08:42:24:538',3,0.000006,0,1
1205,'2026/05/06 08:42:24:573',3,0.000006,0,1
1206,'2026/05/06 08:42:24:604',3,0.000007,0,1
1207,'2026/05/06 08:42:24:637',3,0.000007,0,1
1208,'2026/05/06 08:42:24:672',3,0.000025,0,1
1209,'2026/05/06 08:42:24:704',3,0.000047,0,1
1210,'2026/05/06 08:42:24:738',3,0.00008,0,1
1211,'2026/05/06 08:42:24:771',3,0.000068,0,1
1212,'2026/05/06 08:42:24:806',3,0.000098,0,1
1213,'2026/05/06 08:42:24:839',3,0.000093,0,1
1214,'2026/05/06 08:42:24:872',3,0.000124,0,1
1215,'2026/05/06 08:42:24:904',3,0.000095,0,1
1216,'2026/05/06 08:42:24:939',3,0.000058,0,1
1217,'2026/05/06 08:42:24:971',3,0.000046,0,1
1218,'2026/05/06 08:42:25:005',3,0.000102,0,1
1219,'2026/05/06 08:42:25:040',3,0.000064,0,1
1220,'2026/05/06 08:42:25:071',3,0.000083,0,1
1221,'2026/05/06 08:42:25:104',3,0.000084,0,1
1222,'2026/05/06 08:42:25:139',3,0.000053,0,1
1223,'2026/05/06 08:42:25:172',3,0.000023,0,1
1224,'2026/05/06 08:42:25:203',3,0.000096,0,1
1225,'2026/05/06 08:42:25:238',3,0.000176,0.000001,1
1226,'2026/05/06 08:42:25:270',3,0.000183,0.000001,1
1227,'2026/05/06 08:42:25:303',3,0.000187,0.000001,1
1228,'2026/05/06 08:42:25:337',3,0.000128,0,1
1229,'2026/05/06 08:42:25:386',3,0.00004,0,1
1230,'2026/05/06 08:42:25:430',3,0.000029,0,1
1231,'2026/05/06 08:42:25:462',3,0.000057,0,1
1232,'2026/05/06 08:42:25:496',3,0.000038,0,1
1233,'2026/05/06 08:42:25:530',3,0.000145,0,1
1234,'2026/05/06 08:42:25:561',3,0.000189,0,1
1235,'2026/05/06 08:42:25:595',3,0.000086,0,1
1236,'2026/05/06 08:42:25:628',3,0.000057,0,1
1237,'2026/05/06 08:42:25:664',3,0.000047,0,1
1238,'2026/05/06 08:42:25:697',3,0.000017,0,1
1239,'2026/05/06 08:42:25:729',3,0.000041,0,1
1240,'2026/05/06 08:42:25:763',3,0.000181,0,1
1241,'2026/05/06 08:42:25:795',3,0.000185,0,1
1242,'2026/05/06 08:42:25:830',3,0.000113,0,1
1243,'2026/05/06 08:42:25:862',3,0.000101,0,1
1244,'2026/05/06 08:42:25:896',3,0.000103,0,1
1245,'2026/05/06 08:42:25:928',3,0.000102,0,1
1246,'2026/05/06 08:42:25:961',3,0.000064,0,1
1247,'2026/05/06 08:42:25:996',3,0.000165,0,1
1248,'2026/05/06 08:42:26:028',3,0.000196,0,1
1249,'2026/05/06 08:42:26:063',3,0.000148,0,1
1250,'2026/05/06 08:42:26:095',3,0.000084,0,1
1251,'2026/05/06 08:42:26:131',3,0.000115,0,1
1252,'2026/05/06 08:42:26:163',3,0.000059,0,1
1253,'2026/05/06 08:42:26:196',3,0.000071,0,1
1254,'2026/05/06 08:42:26:230',3,0.000036,0,1
1255,'2026/05/06 08:42:26:262',3,0.00005,0,1
1256,'2026/05/06 08:42:26:295',3,0.000078,0,1
1257,'2026/05/06 08:42:26:328',3,0.000102,0,1
1258,'2026/05/06 08:42:26:363',3,0.00007,0,1
1259,'2026/05/06 08:42:26:397',3,0.00004,0,1
1260,'2026/05/06 08:42:26:429',3,0.000031,0,1
1261,'2026/05/06 08:42:26:462',3,0.000048,0,1
1262,'2026/05/06 08:42:26:495',3,0.000016,0,1
1263,'2026/05/06 08:42:26:528',3,0.000008,0,1
1264,'2026/05/06 08:42:26:563',3,0.000009,0,1
1265,'2026/05/06 08:42:26:596',3,0.000075,0,1
1266,'2026/05/06 08:42:26:628',3,0.000069,0,1
1267,'2026/05/06 08:42:26:661',3,0.000023,0,1
1268,'2026/05/06 08:42:26:695',3,0.000065,0,1
1269,'2026/05/06 08:42:26:730',3,0.000069,0,1
1270,'2026/05/06 08:42:26:764',3,0.00006,0,1
1271,'2026/05/06 08:42:26:795',3,0.000043,0,1
1272,'2026/05/06 08:42:26:829',3,0.00004,0,1
1273,'2026/05/06 08:42:26:862',3,0.000046,0,1
1274,'2026/05/06 08:42:26:896',3,0.000021,0,1
1275,'2026/05/06 08:42:26:929',3,0.000009,0,1
1276,'2026/05/06 08:42:26:961',3,0.000095,0,1
1277,'2026/05/06 08:42:26:996',3,0.000033,0,1
1278,'2026/05/06 08:42:27:029',3,0.000014,0,1
1279,'2026/05/06 08:42:27:062',3,0.000019,0,1
1280,'2026/05/06 08:42:27:098',3,0.000031,0,1
1281,'2026/05/06 08:42:27:128',3,0.000044,0,1
1282,'2026/05/06 08:42:27:163',3,0.000153,0,1
1283,'2026/05/06 08:42:27:196',3,0.000219,0.000001,1
1284,'2026/05/06 08:42:27:229',3,0.000283,0.000002,1
1285,'2026/05/06 08:42:27:262',3,0.000288,0.000001,1
1286,'2026/05/06 08:42:27:296',3,0.0002,0.000001,1
1287,'2026/05/06 08:42:27:331',3,0.000123,0,1
1288,'2026/05/06 08:42:27:363',3,0.000034,0,1
1289,'2026/05/06 08:42:27:398',3,0.00002,0,1
1290,'2026/05/06 08:42:27:430',3,0.000029,0,1
1291,'2026/05/06 08:42:27:463',3,0.000031,0,1
1292,'2026/05/06 08:42:27:498',3,0.000092,0,1
1293,'2026/05/06 08:42:27:529',3,0.000055,0,1
1294,'2026/05/06 08:42:27:563',3,0.000071,0,1
1295,'2026/05/06 08:42:27:600',3,0.000019,0,1
1296,'2026/05/06 08:42:27:647',3,0.000007,0,1
1297,'2026/05/06 08:42:27:680',3,0.000022,0,1
1298,'2026/05/06 08:42:27:715',3,0.000121,0,1
1299,'2026/05/06 08:42:27:747',3,0.000134,0,1
1300,'2026/05/06 08:42:27:780',3,0.000182,0.000001,1
1301,'2026/05/06 08:42:27:812',3,0.00007,0,1
1302,'2026/05/06 08:42:27:847',3,0.000055,0,1
1303,'2026/05/06 08:42:27:880',3,0.000042,0,1
1304,'2026/05/06 08:42:27:915',3,0.000041,0,1
1305,'2026/05/06 08:42:27:947',3,0.000154,0,1
1306,'2026/05/06 08:42:27:980',3,0.000212,0.000001,1
1307,'2026/05/06 08:42:28:014',3,0.000282,0.000001,1
1308,'2026/05/06 08:42:28:050',3,0.00025,0.000001,1
1309,'2026/05/06 08:42:28:081',3,0.000108,0,1
1310,'2026/05/06 08:42:28:114',3,0.000061,0,1
1311,'2026/05/06 08:42:28:147',3,0.000143,0,1
1312,'2026/05/06 08:42:28:181',3,0.000076,0,1
1313,'2026/05/06 08:42:28:212',3,0.000088,0,1
1314,'2026/05/06 08:42:28:246',3,0.000111,0,1
1315,'2026/05/06 08:42:28:280',3,0.000087,0,1
1316,'2026/05/06 08:42:28:312',3,0.000029,0,1
1317,'2026/05/06 08:42:28:346',3,0.000115,0,1
1318,'2026/05/06 08:42:28:382',3,0.000164,0,1
1319,'2026/05/06 08:42:28:414',3,0.000184,0,1
1320,'2026/05/06 08:42:28:447',3,0.000066,0,1
1321,'2026/05/06 08:42:28:481',3,0.000047,0,1
1322,'2026/05/06 08:42:28:512',3,0.000148,0,1
1323,'2026/05/06 08:42:28:547',3,0.000075,0,1
1324,'2026/05/06 08:42:28:583',3,0.000019,0,1
1325,'2026/05/06 08:42:28:613',3,0.00003,0,1
1326,'2026/05/06 08:42:28:647',3,0.000073,0,1
1327,'2026/05/06 08:42:28:681',3,0.000127,0,1
1328,'2026/05/06 08:42:28:714',3,0.0001,0,1
1329,'2026/05/06 08:42:28:747',3,0.000074,0,1
1330,'2026/05/06 08:42:28:780',3,0.000035,0,1
1331,'2026/05/06 08:42:28:813',3,0.000021,0,1
1332,'2026/05/06 08:42:28:847',3,0.000018,0,1
1333,'2026/05/06 08:42:28:880',3,0.00001,0,1
1334,'2026/05/06 08:42:28:913',3,0.000005,0,1
1335,'2026/05/06 08:42:28:946',3,0.000012,0,1
1336,'2026/05/06 08:42:28:981',3,0.000052,0,1
1337,'2026/05/06 08:42:29:014',3,0.000059,0,1
1338,'2026/05/06 08:42:29:046',3,0.000015,0,1
1339,'2026/05/06 08:42:29:079',3,0.000007,0,1
1340,'2026/05/06 08:42:29:114',3,0.000006,0,1
1341,'2026/05/06 08:42:29:146',3,0.000004,0,1
1342,'2026/05/06 08:42:29:180',3,0.000004,0,1
1343,'2026/05/06 08:42:29:213',3,0.000004,0,1
1344,'2026/05/06 08:42:29:248',3,0.000003,0,1
1345,'2026/05/06 08:42:29:281',3,0.000003,0,1
1346,'2026/05/06 08:42:29:313',3,0.000003,0,1
1347,'2026/05/06 08:42:29:346',3,0.000004,0,1
1348,'2026/05/06 08:42:29:382',3,0.000004,0,1
1349,'2026/05/06 08:42:29:414',3,0.000105,0,1
1350,'2026/05/06 08:42:29:447',3,0.000217,0.000001,1
1351,'2026/05/06 08:42:29:482',3,0.000168,0,1
1352,'2026/05/06 08:42:29:514',3,0.000053,0,1
1353,'2026/05/06 08:42:29:546',3,0.000094,0,1
1354,'2026/05/06 08:42:29:580',3,0.000099,0,1
1355,'2026/05/06 08:42:29:613',3,0.000046,0,1
1356,'2026/05/06 08:42:29:647',3,0.000036,0,1
1357,'2026/05/06 08:42:29:681',3,0.00013,0,1
1358,'2026/05/06 08:42:29:713',3,0.000148,0,1
1359,'2026/05/06 08:42:29:748',3,0.000051,0,1
1360,'2026/05/06 08:42:29:781',3,0.000014,0,1
1361,'2026/05/06 08:42:29:814',3,0.000017,0,1
1362,'2026/05/06 08:42:29:847',3,0.000044,0,1
1363,'2026/05/06 08:42:29:880',3,0.000029,0,1
1364,'2026/05/06 08:42:29:912',3,0.000018,0,1
1365,'2026/05/06 08:42:29:948',3,0.000025,0,1
1366,'2026/05/06 08:42:29:981',3,0.000023,0,1
1367,'2026/05/06 08:42:30:013',3,0.000016,0,1
1368,'2026/05/06 08:42:30:046',3,0.000044,0,1
1369,'2026/05/06 08:42:30:081',3,0.000045,0,1
1370,'2026/05/06 08:42:30:113',3,0.000026,0,1
1371,'2026/05/06 08:42:30:146',3,0.000011,0,1
1372,'2026/05/06 08:42:30:182',3,0.000047,0,1
1373,'2026/05/06 08:42:30:214',3,0.000052,0,1
1374,'2026/05/06 08:42:30:262',3,0.000012,0,1
1375,'2026/05/06 08:42:30:305',3,0.000028,0,1
1376,'2026/05/06 08:42:30:338',3,0.000023,0,1
1377,'2026/05/06 08:42:30:372',3,0.000082,0,1
1378,'2026/05/06 08:42:30:406',3,0.000094,0,1
1379,'2026/05/06 08:42:30:438',3,0.000071,0,1
1380,'2026/05/06 08:42:30:473',3,0.000082,0,1
1381,'2026/05/06 08:42:30:505',3,0.00006,0,1
1382,'2026/05/06 08:42:30:538',3,0.000024,0,1
1383,'2026/05/06 08:42:30:572',3,0.000066,0,1
1384,'2026/05/06 08:42:30:605',3,0.000088,0,1
1385,'2026/05/06 08:42:30:637',3,0.000108,0,1
1386,'2026/05/06 08:42:30:672',3,0.000046,0,1
1387,'2026/05/06 08:42:30:705',3,0.000075,0,1
1388,'2026/05/06 08:42:30:739',3,0.00009,0,1
1389,'2026/05/06 08:42:30:772',3,0.000062,0,1
1390,'2026/05/06 08:42:30:806',3,0.000028,0,1
1391,'2026/05/06 08:42:30:840',3,0.000009,0,1
1392,'2026/05/06 08:42:30:872',3,0.000011,0,1
1393,'2026/05/06 08:42:30:907',3,0.00002,0,1
1394,'2026/05/06 08:42:30:937',3,0.000031,0,1
1395,'2026/05/06 08:42:30:971',3,0.0002,0.000001,1
1396,'2026/05/06 08:42:31:005',3,0.000175,0,1
1397,'2026/05/06 08:42:31:041',3,0.000189,0,1
1398,'2026/05/06 08:42:31:073',3,0.000225,0.000001,1
1399,'2026/05/06 08:42:31:106',3,0.000143,0,1
1400,'2026/05/06 08:42:31:139',3,0.000027,0,1
1401,'2026/05/06 08:42:31:173',3,0.000017,0,1
1402,'2026/05/06 08:42:31:206',3,0.000061,0,1
1403,'2026/05/06 08:42:31:241',3,0.000061,0,1
1404,'2026/05/06 08:42:31:273',3,0.000025,0,1
1405,'2026/05/06 08:42:31:307',3,0.000014,0,1
1406,'2026/05/06 08:42:31:340',3,0.000011,0,1
1407,'2026/05/06 08:42:31:374',3,0.0001,0,1
1408,'2026/05/06 08:42:31:406',3,0.000047,0,1
1409,'2026/05/06 08:42:31:439',3,0.000031,0,1
1410,'2026/05/06 08:42:31:473',3,0.000027,0,1
1411,'2026/05/06 08:42:31:507',3,0.000023,0,1
1412,'2026/05/06 08:42:31:540',3,0.000018,0,1
1413,'2026/05/06 08:42:31:574',3,0.000012,0,1
1414,'2026/05/06 08:42:31:607',3,0.000018,0,1
1415,'2026/05/06 08:42:31:639',3,0.000066,0,1
1416,'2026/05/06 08:42:31:674',3,0.00017,0.000001,1
1417,'2026/05/06 08:42:31:707',3,0.000163,0.000001,1
1418,'2026/05/06 08:42:31:747',3,0.000058,0,1
1419,'2026/05/06 08:42:31:778',3,0.000064,0,1
1420,'2026/05/06 08:42:31:813',3,0.000059,0,1
1421,'2026/05/06 08:42:31:848',3,0.000051,0,1
1422,'2026/05/06 08:42:31:883',3,0.000097,0,1
1423,'2026/05/06 08:42:31:917',3,0.000097,0,1
1424,'2026/05/06 08:42:31:952',3,0.000114,0,1
1425,'2026/05/06 08:42:31:982',3,0.000072,0,1
1426,'2026/05/06 08:42:32:016',3,0.000064,0,1
1427,'2026/05/06 08:42:32:052',3,0.00006,0,1
1428,'2026/05/06 08:42:32:083',3,0.00009,0,1
1429,'2026/05/06 08:42:32:116',3,0.000069,0,1
1430,'2026/05/06 08:42:32:149',3,0.000094,0,1
1431,'2026/05/06 08:42:32:184',3,0.00011,0,1
1432,'2026/05/06 08:42:32:215',3,0.000126,0,1
1433,'2026/05/06 08:42:32:251',3,0.000051,0,1
1434,'2026/05/06 08:42:32:282',3,0.000042,0,1
1435,'2026/05/06 08:42:32:316',3,0.000047,0,1
1436,'2026/05/06 08:42:32:348',3,0.000112,0,1
1437,'2026/05/06 08:42:32:381',3,0.000107,0,1
1438,'2026/05/06 08:42:32:416',3,0.000108,0,1
1439,'2026/05/06 08:42:32:450',3,0.00007,0,1
1440,'2026/05/06 08:42:32:483',3,0.000067,0,1
1441,'2026/05/06 08:42:32:517',3,0.000029,0,1
1442,'2026/05/06 08:42:32:549',3,0.000011,0,1
1443,'2026/05/06 08:42:32:584',3,0.000006,0,1
1444,'2026/05/06 08:42:32:617',3,0.00012,0,1
1445,'2026/05/06 08:42:32:648',3,0.000046,0,1
1446,'2026/05/06 08:42:32:682',3,0.000062,0,1
1447,'2026/05/06 08:42:32:716',3,0.000047,0,1
1448,'2026/05/06 08:42:32:749',3,0.000012,0,1
1449,'2026/05/06 08:42:32:783',3,0.000007,0,1
1450,'2026/05/06 08:42:32:815',3,0.000005,0,1
1451,'2026/05/06 08:42:32:848',3,0.000004,0,1
1452,'2026/05/06 08:42:32:883',3,0.000017,0,1
1453,'2026/05/06 08:42:32:916',3,0.000104,0,1
1454,'2026/05/06 08:42:32:951',3,0.000089,0,1
1455,'2026/05/06 08:42:32:984',3,0.000143,0.000001,1
1456,'2026/05/06 08:42:33:016',3,0.000143,0.000001,1
1457,'2026/05/06 08:42:33:049',3,0.000164,0.000001,1
1458,'2026/05/06 08:42:33:082',3,0.000147,0.000001,1
1459,'2026/05/06 08:42:33:116',3,0.00012,0.000001,1
1460,'2026/05/06 08:42:33:151',3,0.000048,0,1
1461,'2026/05/06 08:42:33:182',3,0.00013,0,1
1462,'2026/05/06 08:42:33:216',3,0.000273,0.000001,1
1463,'2026/05/06 08:42:33:251',3,0.000208,0.000001,1
1464,'2026/05/06 08:42:33:282',3,0.000034,0,1
1465,'2026/05/06 08:42:33:316',3,0.000242,0.000001,1
1466,'2026/05/06 08:42:33:351',3,0.000169,0,1
1467,'2026/05/06 08:42:33:383',3,0.000091,0,1
1468,'2026/05/06 08:42:33:416',3,0.000041,0,1
1469,'2026/05/06 08:42:33:452',3,0.000038,0,1
1470,'2026/05/06 08:42:33:483',3,0.000148,0,1
1471,'2026/05/06 08:42:33:515',3,0.000061,0,1
1472,'2026/05/06 08:42:33:552',3,0.000027,0,1
1473,'2026/05/06 08:42:33:584',3,0.00002,0,1
1474,'2026/05/06 08:42:33:615',3,0.000026,0,1
1475,'2026/05/06 08:42:33:652',3,0.000011,0,1
1476,'2026/05/06 08:42:33:683',3,0.000007,0,1
1477,'2026/05/06 08:42:33:717',3,0.000056,0,1
1478,'2026/05/06 08:42:33:749',3,0.000108,0,1
1479,'2026/05/06 08:42:33:782',3,0.000065,0,1
1480,'2026/05/06 08:42:33:817',3,0.000014,0,1
1481,'2026/05/06 08:42:33:852',3,0.000008,0,1
1482,'2026/05/06 08:42:33:884',3,0.000005,0,1
1483,'2026/05/06 08:42:33:918',3,0.000004,0,1
1484,'2026/05/06 08:42:33:951',3,0.000004,0,1
1485,'2026/05/06 08:42:33:984',3,0.000004,0,1
1486,'2026/05/06 08:42:34:016',3,0.000004,0,1
1487,'2026/05/06 08:42:34:052',3,0.000004,0,1
1488,'2026/05/06 08:42:34:083',3,0.000004,0,1
1489,'2026/05/06 08:42:34:118',3,0.000004,0,1
1490,'2026/05/06 08:42:34:149',3,0.000005,0,1
1491,'2026/05/06 08:42:34:184',3,0.000066,0,1
1492,'2026/05/06 08:42:34:218',3,0.000124,0,1
1493,'2026/05/06 08:42:34:252',3,0.000082,0,1
1494,'2026/05/06 08:42:34:283',3,0.000042,0,1
1495,'2026/05/06 08:42:34:316',3,0.000124,0,1
1496,'2026/05/06 08:42:34:352',3,0.000142,0,1
1497,'2026/05/06 08:42:34:385',3,0.00011,0,1
1498,'2026/05/06 08:42:34:416',3,0.00003,0,1
1499,'2026/05/06 08:42:34:452',3,0.000057,0,1
1500,'2026/05/06 08:42:34:482',3,0.000049,0,1
1501,'2026/05/06 08:42:34:516',3,0.000124,0,1
1502,'2026/05/06 08:42:34:551',3,0.000088,0,1
1503,'2026/05/06 08:42:34:583',3,0.000103,0,1
1504,'2026/05/06 08:42:34:617',3,0.000201,0,1
1505,'2026/05/06 08:42:34:651',3,0.000164,0,1
1506,'2026/05/06 08:42:34:683',3,0.000132,0,1
1507,'2026/05/06 08:42:34:717',3,0.000124,0,1
1508,'2026/05/06 08:42:34:751',3,0.000067,0,1
1509,'2026/05/06 08:42:34:783',3,0.000036,0,1
1510,'2026/05/06 08:42:34:817',3,0.000054,0,1
1511,'2026/05/06 08:42:34:853',3,0.000063,0,1
1512,'2026/05/06 08:42:34:884',3,0.000009,0,1
1513,'2026/05/06 08:42:34:915',3,0.000006,0,1
1514,'2026/05/06 08:42:34:952',3,0.000005,0,1
1515,'2026/05/06 08:42:34:983',3,0.000005,0,1
1516,'2026/05/06 08:42:35:016',3,0.000004,0,1
1517,'2026/05/06 08:42:35:056',3,0.000004,0,1
1518,'2026/05/06 08:42:35:090',3,0.000004,0,1
1519,'2026/05/06 08:42:35:129',3,0.000004,0,1
1520,'2026/05/06 08:42:35:173',3,0.000004,0,1
1521,'2026/05/06 08:42:35:206',3,0.000004,0,1
1522,'2026/05/06 08:42:35:241',3,0.000005,0,1
1523,'2026/05/06 08:42:35:273',3,0.000022,0,1
1524,'2026/05/06 08:42:35:308',3,0.000012,0,1
1525,'2026/05/06 08:42:35:339',3,0.000009,0,1
1526,'2026/05/06 08:42:35:384',3,0.00006,0,1
1527,'2026/05/06 08:42:35:425',3,0.000045,0,1
1528,'2026/05/06 08:42:35:462',3,0.000043,0,1
1529,'2026/05/06 08:42:35:492',3,0.000031,0,1
1530,'2026/05/06 08:42:35:528',3,0.00004,0,1
1531,'2026/05/06 08:42:35:559',3,0.000072,0,1
1532,'2026/05/06 08:42:35:593',3,0.000057,0,1
1533,'2026/05/06 08:42:35:627',3,0.000062,0,1
1534,'2026/05/06 08:42:35:659',3,0.000076,0,1
1535,'2026/05/06 08:42:35:692',3,0.000018,0,1
1536,'2026/05/06 08:42:35:726',3,0.0001,0,1
1537,'2026/05/06 08:42:35:760',3,0.000063,0,1
1538,'2026/05/06 08:42:35:792',3,0.000018,0,1
1539,'2026/05/06 08:42:35:825',3,0.000011,0,1
1540,'2026/05/06 08:42:35:861',3,0.000031,0,1
1541,'2026/05/06 08:42:35:892',3,0.000014,0,1
1542,'2026/05/06 08:42:35:927',3,0.000047,0,1
1543,'2026/05/06 08:42:35:959',3,0.000103,0,1
1544,'2026/05/06 08:42:35:992',3,0.000084,0,1
1545,'2026/05/06 08:42:36:028',3,0.000074,0,1
1546,'2026/05/06 08:42:36:058',3,0.000085,0,1
1547,'2026/05/06 08:42:36:093',3,0.000079,0,1
1548,'2026/05/06 08:42:36:124',3,0.000091,0,1
1549,'2026/05/06 08:42:36:158',3,0.00012,0,1
1550,'2026/05/06 08:42:36:192',3,0.000068,0,1
1551,'2026/05/06 08:42:36:227',3,0.000168,0,1
1552,'2026/05/06 08:42:36:261',3,0.000199,0.000001,1
1553,'2026/05/06 08:42:36:292',3,0.00012,0,1
1554,'2026/05/06 08:42:36:325',3,0.000024,0,1
1555,'2026/05/06 08:42:36:359',3,0.000017,0,1
1556,'2026/05/06 08:42:36:393',3,0.000026,0,1
1557,'2026/05/06 08:42:36:427',3,0.000025,0,1
1558,'2026/05/06 08:42:36:460',3,0.000137,0.000001,1
1559,'2026/05/06 08:42:36:492',3,0.000169,0.000001,1
1560,'2026/05/06 08:42:36:526',3,0.00008,0,1
1561,'2026/05/06 08:42:36:559',3,0.000059,0,1
1562,'2026/05/06 08:42:36:592',3,0.000039,0,1
1563,'2026/05/06 08:42:36:626',3,0.00007,0,1
1564,'2026/05/06 08:42:36:658',3,0.000031,0,1
1565,'2026/05/06 08:42:36:691',3,0.000142,0,1
1566,'2026/05/06 08:42:36:726',3,0.000061,0,1
1567,'2026/05/06 08:42:36:758',3,0.000095,0,1
1568,'2026/05/06 08:42:36:792',3,0.000116,0,1
1569,'2026/05/06 08:42:36:826',3,0.00005,0,1
1570,'2026/05/06 08:42:36:860',3,0.000098,0,1
1571,'2026/05/06 08:42:36:893',3,0.000049,0,1
1572,'2026/05/06 08:42:36:927',3,0.000049,0,1
1573,'2026/05/06 08:42:36:959',3,0.000027,0,1
1574,'2026/05/06 08:42:36:993',3,0.000013,0,1
1575,'2026/05/06 08:42:37:027',3,0.000013,0,1
1576,'2026/05/06 08:42:37:061',3,0.000011,0,1
1577,'2026/05/06 08:42:37:092',3,0.000052,0,1
1578,'2026/05/06 08:42:37:126',3,0.000038,0,1
1579,'2026/05/06 08:42:37:158',3,0.000065,0,1
1580,'2026/05/06 08:42:37:193',3,0.000098,0,1
1581,'2026/05/06 08:42:37:226',3,0.000037,0,1
1582,'2026/05/06 08:42:37:259',3,0.000046,0,1
1583,'2026/05/06 08:42:37:291',3,0.00004,0,1
1584,'2026/05/06 08:42:37:326',3,0.000041,0,1
1585,'2026/05/06 08:42:37:359',3,0.000034,0,1
1586,'2026/05/06 08:42:37:392',3,0.00005,0,1
1587,'2026/05/06 08:42:37:426',3,0.000012,0,1
1588,'2026/05/06 08:42:37:458',3,0.000007,0,1
1589,'2026/05/06 08:42:37:491',3,0.000066,0,1
1590,'2026/05/06 08:42:37:527',3,0.000087,0,1
1591,'2026/05/06 08:42:37:560',3,0.000117,0,1
1592,'2026/05/06 08:42:37:591',3,0.00015,0,1
1593,'2026/05/06 08:42:37:625',3,0.000147,0,1
1594,'2026/05/06 08:42:37:661',3,0.000026,0,1
1595,'2026/05/06 08:42:37:693',3,0.000014,0,1
1596,'2026/05/06 08:42:37:725',3,0.000008,0,1
1597,'2026/05/06 08:42:37:759',3,0.000017,0,1
1598,'2026/05/06 08:42:37:793',3,0.000014,0,1
1599,'2026/05/06 08:42:37:827',3,0.000015,0,1
1600,'2026/05/06 08:42:37:868',3,0.000098,0,1
1601,'2026/05/06 08:42:37:902',3,0.000137,0,1
1602,'2026/05/06 08:42:37:934',3,0.000202,0.000002,1
1603,'2026/05/06 08:42:37:979',3,0.000302,0.000002,1
1604,'2026/05/06 08:42:38:011',3,0.00014,0,1
1605,'2026/05/06 08:42:38:046',3,0.000047,0,1
1606,'2026/05/06 08:42:38:078',3,0.000024,0,1
1607,'2026/05/06 08:42:38:112',3,0.00001,0,1
1608,'2026/05/06 08:42:38:145',3,0.000008,0,1
1609,'2026/05/06 08:42:38:179',3,0.000005,0,1
1610,'2026/05/06 08:42:38:212',3,0.000032,0,1
1611,'2026/05/06 08:42:38:245',3,0.00006,0,1
1612,'2026/05/06 08:42:38:278',3,0.000049,0,1
1613,'2026/05/06 08:42:38:312',3,0.000043,0,1
1614,'2026/05/06 08:42:38:347',3,0.000008,0,1
1615,'2026/05/06 08:42:38:380',3,0.000014,0,1
1616,'2026/05/06 08:42:38:413',3,0.000087,0,1
1617,'2026/05/06 08:42:38:445',3,0.000031,0,1
1618,'2026/05/06 08:42:38:478',3,0.000013,0,1
1619,'2026/05/06 08:42:38:512',3,0.000007,0,1
1620,'2026/05/06 08:42:38:545',3,0.000026,0,1
1621,'2026/05/06 08:42:38:578',3,0.000079,0,1
1622,'2026/05/06 08:42:38:613',3,0.000064,0,1
1623,'2026/05/06 08:42:38:646',3,0.000068,0,1
1624,'2026/05/06 08:42:38:678',3,0.000129,0,1
1625,'2026/05/06 08:42:38:712',3,0.000017,0,1
1626,'2026/05/06 08:42:38:746',3,0.000009,0,1
1627,'2026/05/06 08:42:38:781',3,0.000006,0,1
1628,'2026/05/06 08:42:38:811',3,0.000005,0,1
1629,'2026/05/06 08:42:38:844',3,0.000004,0,1
1630,'2026/05/06 08:42:38:878',3,0.000004,0,1
1631,'2026/05/06 08:42:38:912',3,0.000004,0,1
1632,'2026/05/06 08:42:38:946',3,0.000003,0,1
1633,'2026/05/06 08:42:38:978',3,0.000003,0,1
1634,'2026/05/06 08:42:39:012',3,0.000004,0,1
1635,'2026/05/06 08:42:39:045',3,0.000004,0,1
1636,'2026/05/06 08:42:39:078',3,0.000004,0,1
1637,'2026/05/06 08:42:39:112',3,0.000004,0,1
1638,'2026/05/06 08:42:39:146',3,0.000004,0,1
1639,'2026/05/06 08:42:39:178',3,0.000004,0,1
1640,'2026/05/06 08:42:39:211',3,0.000004,0,1
1641,'2026/05/06 08:42:39:244',3,0.000004,0,1
1642,'2026/05/06 08:42:39:279',3,0.000004,0,1
1643,'2026/05/06 08:42:39:311',3,0.000004,0,1
1644,'2026/05/06 08:42:39:344',3,0.000004,0,1
1645,'2026/05/06 08:42:39:379',3,0.000004,0,1
1646,'2026/05/06 08:42:39:412',3,0.000009,0,1
1647,'2026/05/06 08:42:39:445',3,0.000023,0,1
1648,'2026/05/06 08:42:39:478',3,0.000025,0,1
1649,'2026/05/06 08:42:39:511',3,0.000175,0.000001,1
1650,'2026/05/06 08:42:39:544',3,0.000142,0,1
1651,'2026/05/06 08:42:39:577',3,0.000137,0,1
1652,'2026/05/06 08:42:39:612',3,0.000142,0,1
1653,'2026/05/06 08:42:39:646',3,0.000072,0,1
1654,'2026/05/06 08:42:39:679',3,0.000025,0,1
1655,'2026/05/06 08:42:39:716',3,0.000051,0,1
1656,'2026/05/06 08:42:39:762',3,0.000183,0.000001,1
1657,'2026/05/06 08:42:39:794',3,0.000164,0.000001,1
1658,'2026/05/06 08:42:39:830',3,0.000083,0,1
1659,'2026/05/06 08:42:39:862',3,0.000059,0,1
1660,'2026/05/06 08:42:39:896',3,0.000017,0,1
1661,'2026/05/06 08:42:39:929',3,0.000017,0,1
1662,'2026/05/06 08:42:39:961',3,0.000008,0,1
1663,'2026/05/06 08:42:39:995',3,0.000005,0,1
1664,'2026/05/06 08:42:40:028',3,0.000004,0,1
1665,'2026/05/06 08:42:40:063',3,0.000004,0,1
1666,'2026/05/06 08:42:40:095',3,0.000004,0,1
1667,'2026/05/06 08:42:40:133',3,0.000004,0,1
1668,'2026/05/06 08:42:40:179',3,0.000004,0,1
1669,'2026/05/06 08:42:40:229',3,0.000004,0,1
1670,'2026/05/06 08:42:40:262',3,0.000004,0,1
1671,'2026/05/06 08:42:40:295',3,0.000004,0,1
1672,'2026/05/06 08:42:40:329',3,0.000004,0,1
1673,'2026/05/06 08:42:40:362',3,0.000126,0,1
1674,'2026/05/06 08:42:40:395',3,0.000157,0,1
1675,'2026/05/06 08:42:40:428',3,0.000153,0,1
1676,'2026/05/06 08:42:40:462',3,0.000099,0,1
1677,'2026/05/06 08:42:40:496',3,0.000092,0,1
1678,'2026/05/06 08:42:40:528',3,0.000102,0,1
1679,'2026/05/06 08:42:40:562',3,0.000153,0,1
1680,'2026/05/06 08:42:40:595',3,0.000089,0,1
1681,'2026/05/06 08:42:40:628',3,0.000024,0,1
1682,'2026/05/06 08:42:40:662',3,0.000027,0,1
1683,'2026/05/06 08:42:40:696',3,0.000277,0.000001,1
1684,'2026/05/06 08:42:40:728',3,0.000253,0.000001,1
1685,'2026/05/06 08:42:40:762',3,0.00015,0,1
1686,'2026/05/06 08:42:40:794',3,0.000039,0,1
1687,'2026/05/06 08:42:40:828',3,0.000038,0,1
1688,'2026/05/06 08:42:40:863',3,0.000117,0,1
1689,'2026/05/06 08:42:40:895',3,0.000095,0,1
1690,'2026/05/06 08:42:40:928',3,0.000107,0,1
1691,'2026/05/06 08:42:40:962',3,0.000139,0,1
1692,'2026/05/06 08:42:40:996',3,0.000267,0.000001,1
1693,'2026/05/06 08:42:41:028',3,0.000256,0.000001,1
1694,'2026/05/06 08:42:41:063',3,0.000171,0,1
1695,'2026/05/06 08:42:41:095',3,0.000085,0,1
1696,'2026/05/06 08:42:41:129',3,0.000026,0,1
1697,'2026/05/06 08:42:41:164',3,0.000014,0,1
1698,'2026/05/06 08:42:41:195',3,0.000006,0,1
1699,'2026/05/06 08:42:41:228',3,0.000005,0,1
1700,'2026/05/06 08:42:41:262',3,0.000005,0,1
1701,'2026/05/06 08:42:41:297',3,0.000106,0,1
1702,'2026/05/06 08:42:41:328',3,0.000186,0.000001,1
1703,'2026/05/06 08:42:41:363',3,0.000178,0.000001,1
1704,'2026/05/06 08:42:41:395',3,0.000139,0.000001,1
1705,'2026/05/06 08:42:41:430',3,0.000093,0,1
1706,'2026/05/06 08:42:41:462',3,0.000069,0,1
1707,'2026/05/06 08:42:41:495',3,0.000044,0,1
1708,'2026/05/06 08:42:41:531',3,0.000018,0,1
1709,'2026/05/06 08:42:41:562',3,0.000233,0,1
1710,'2026/05/06 08:42:41:595',3,0.000177,0,1
1711,'2026/05/06 08:42:41:630',3,0.00009,0,1
1712,'2026/05/06 08:42:41:666',3,0.000126,0,1
1713,'2026/05/06 08:42:41:711',3,0.000046,0,1
1714,'2026/05/06 08:42:41:745',3,0.000035,0,1
1715,'2026/05/06 08:42:41:779',3,0.000026,0,1
1716,'2026/05/06 08:42:41:813',3,0.000017,0,1
1717,'2026/05/06 08:42:41:846',3,0.000023,0,1
1718,'2026/05/06 08:42:41:878',3,0.000139,0,1
1719,'2026/05/06 08:42:41:912',3,0.000143,0,1
1720,'2026/05/06 08:42:41:944',3,0.00006,0,1
1721,'2026/05/06 08:42:41:979',3,0.000109,0,1
1722,'2026/05/06 08:42:42:012',3,0.000037,0,1
1723,'2026/05/06 08:42:42:045',3,0.000127,0,1
1724,'2026/05/06 08:42:42:079',3,0.000021,0,1
1725,'2026/05/06 08:42:42:113',3,0.000024,0,1
1726,'2026/05/06 08:42:42:145',3,0.00001,0,1
1727,'2026/05/06 08:42:57:660',4,0.000367,0.000001,2
1728,'2026/05/06 08:42:57:692',4,0.000334,0.000001,2
1729,'2026/05/06 08:42:57:727',4,0.000342,0.000001,2
1730,'2026/05/06 08:42:57:763',4,0.000347,0.000001,2
1731,'2026/05/06 08:42:57:809',4,0.000484,0.000002,2
1732,'2026/05/06 08:42:57:844',4,0.000653,0.000003,2
1733,'2026/05/06 08:42:57:877',4,0.000386,0.000002,2
1734,'2026/05/06 08:42:57:911',4,0.000373,0.000001,2
1735,'2026/05/06 08:42:57:942',4,0.000342,0.000001,2
1736,'2026/05/06 08:42:57:979',4,0.000462,0.000001,2
1737,'2026/05/06 08:42:58:010',4,0.000336,0.000001,2
1738,'2026/05/06 08:42:58:043',4,0.00051,0.000002,2
1739,'2026/05/06 08:42:58:077',4,0.000331,0.000001,2
1740,'2026/05/06 08:42:58:110',4,0.000312,0.000001,2
1741,'2026/05/06 08:42:58:143',4,0.000393,0.000001,2
1742,'2026/05/06 08:42:58:176',4,0.000387,0.000001,2
1743,'2026/05/06 08:42:58:210',4,0.000424,0.000001,2
1744,'2026/05/06 08:42:58:243',4,0.000288,0.000001,2
1745,'2026/05/06 08:42:58:277',4,0.000527,0.000003,2
1746,'2026/05/06 08:42:58:310',4,0.000505,0.000003,2
1747,'2026/05/06 08:42:58:343',4,0.000518,0.000003,2
1748,'2026/05/06 08:42:58:377',4,0.00046,0.000002,2
1749,'2026/05/06 08:42:58:411',4,0.000327,0.000001,2
1750,'2026/05/06 08:42:58:459',4,0.000451,0.000001,2
1751,'2026/05/06 08:42:58:493',4,0.000355,0.000001,2
1752,'2026/05/06 08:42:58:526',4,0.000394,0.000001,2
1753,'2026/05/06 08:42:58:560',4,0.000422,0.000001,2
1754,'2026/05/06 08:42:58:593',4,0.000415,0.000002,2
1755,'2026/05/06 08:42:58:626',4,0.000286,0.000001,2
1756,'2026/05/06 08:42:58:659',4,0.000472,0.000001,2
1757,'2026/05/06 08:42:58:694',4,0.000295,0.000001,2
1758,'2026/05/06 08:42:58:726',4,0.000465,0.000001,2
1759,'2026/05/06 08:42:58:760',4,0.000378,0.000001,2
1760,'2026/05/06 08:42:58:793',4,0.00057,0.000002,2
1761,'2026/05/06 08:42:58:826',4,0.000303,0.000001,2
1762,'2026/05/06 08:42:58:859',4,0.000513,0.000002,2
1763,'2026/05/06 08:42:58:894',4,0.000359,0.000001,2
1764,'2026/05/06 08:42:58:927',4,0.000431,0.000001,2
1765,'2026/05/06 08:42:58:960',4,0.000361,0.000001,2
1766,'2026/05/06 08:42:58:994',4,0.000417,0.000001,2
1767,'2026/05/06 08:42:59:028',4,0.000505,0.000002,2
1768,'2026/05/06 08:42:59:060',4,0.00046,0.000002,2
1769,'2026/05/06 08:42:59:093',4,0.000504,0.000001,2
1770,'2026/05/06 08:42:59:127',4,0.000462,0.000001,2
1771,'2026/05/06 08:42:59:161',4,0.000242,0,2
1772,'2026/05/06 08:42:59:192',4,0.000312,0.000001,2
1773,'2026/05/06 08:42:59:227',4,0.000525,0.000002,2
1774,'2026/05/06 08:42:59:260',4,0.000387,0.000001,2
1775,'2026/05/06 08:42:59:292',4,0.000274,0,2
1776,'2026/05/06 08:42:59:329',4,0.000629,0.000003,2
1777,'2026/05/06 08:42:59:360',4,0.000277,0,2
1778,'2026/05/06 08:42:59:394',4,0.000247,0,2
1779,'2026/05/06 08:42:59:426',4,0.000311,0.000001,2
1780,'2026/05/06 08:42:59:462',4,0.000341,0.000001,2
1781,'2026/05/06 08:42:59:493',4,0.000442,0.000002,2
1782,'2026/05/06 08:42:59:526',4,0.000311,0.000001,2
1783,'2026/05/06 08:42:59:563',4,0.000301,0,2
1784,'2026/05/06 08:42:59:593',4,0.000472,0.000002,2
1785,'2026/05/06 08:42:59:627',4,0.000362,0.000001,2
1786,'2026/05/06 08:42:59:662',4,0.000391,0.000001,2
1787,'2026/05/06 08:42:59:692',4,0.000254,0,2
1788,'2026/05/06 08:42:59:726',4,0.00023,0,2
1789,'2026/05/06 08:42:59:759',4,0.000262,0,2
1790,'2026/05/06 08:42:59:795',4,0.000387,0.000001,2
1791,'2026/05/06 08:42:59:827',4,0.000322,0.000001,2
1792,'2026/05/06 08:42:59:859',4,0.000624,0.000002,2
1793,'2026/05/06 08:42:59:893',4,0.00055,0.000002,2
1794,'2026/05/06 08:42:59:927',4,0.000335,0.000001,2
1795,'2026/05/06 08:42:59:960',4,0.00028,0.000001,2
1796,'2026/05/06 08:42:59:992',4,0.000482,0.000001,2
1797,'2026/05/06 08:43:00:025',4,0.000402,0.000002,2
1798,'2026/05/06 08:43:00:061',4,0.000497,0.000002,2
1799,'2026/05/06 08:43:00:094',4,0.000424,0.000001,2
1800,'2026/05/06 08:43:00:128',4,0.000403,0.000001,2
1801,'2026/05/06 08:43:00:162',4,0.000285,0.000001,2
1802,'2026/05/06 08:43:00:192',4,0.000234,0,2
1803,'2026/05/06 08:43:00:236',4,0.000535,0.000002,2
1804,'2026/05/06 08:43:00:268',4,0.000424,0.000001,2
1805,'2026/05/06 08:43:00:302',4,0.000283,0.000001,2
1806,'2026/05/06 08:43:00:335',4,0.000297,0.000001,2
1807,'2026/05/06 08:43:00:373',4,0.000334,0.000001,2
1808,'2026/05/06 08:43:00:418',4,0.000509,0.000003,2
1809,'2026/05/06 08:43:00:454',4,0.000237,0,2
1810,'2026/05/06 08:43:00:487',4,0.000434,0.000001,2
1811,'2026/05/06 08:43:00:521',4,0.000268,0,2
1812,'2026/05/06 08:43:00:551',4,0.000499,0.000002,2
1813,'2026/05/06 08:43:00:587',4,0.00035,0.000001,2
1814,'2026/05/06 08:43:00:620',4,0.000355,0.000002,2
1815,'2026/05/06 08:43:00:660',4,0.000416,0.000002,2
1816,'2026/05/06 08:43:00:708',4,0.00034,0.000001,2
1817,'2026/05/06 08:43:00:740',4,0.000256,0,2
1818,'2026/05/06 08:43:00:773',4,0.000437,0.000002,2
1819,'2026/05/06 08:43:00:808',4,0.000406,0.000001,2
1820,'2026/05/06 08:43:00:844',4,0.000379,0.000001,2
1821,'2026/05/06 08:43:00:875',4,0.000273,0.000001,2
1822,'2026/05/06 08:43:00:910',4,0.000306,0.000001,2
1823,'2026/05/06 08:43:00:943',4,0.000599,0.000002,2
1824,'2026/05/06 08:43:00:975',4,0.000486,0.000002,2
1825,'2026/05/06 08:43:01:010',4,0.000358,0.000001,2
1826,'2026/05/06 08:43:01:043',4,0.000437,0.000001,2
1827,'2026/05/06 08:43:01:077',4,0.000288,0.000001,2
1828,'2026/05/06 08:43:01:109',4,0.000456,0.000002,2
1829,'2026/05/06 08:43:01:143',4,0.000207,0,2
1830,'2026/05/06 08:43:01:177',4,0.000323,0.000001,2
1831,'2026/05/06 08:43:01:212',4,0.000303,0.000001,2
1832,'2026/05/06 08:43:01:243',4,0.000331,0.000001,2
1833,'2026/05/06 08:43:01:275',4,0.000329,0.000001,2
1834,'2026/05/06 08:43:01:311',4,0.000532,0.000002,2
1835,'2026/05/06 08:43:01:348',4,0.000263,0,2
1836,'2026/05/06 08:43:01:394',4,0.000347,0.000001,2
1837,'2026/05/06 08:43:01:428',4,0.000339,0.000001,2
1838,'2026/05/06 08:43:01:458',4,0.000298,0,2
1839,'2026/05/06 08:43:01:493',4,0.000429,0.000001,2
1840,'2026/05/06 08:43:01:526',4,0.000281,0,2
1841,'2026/05/06 08:43:01:560',4,0.00031,0.000001,2
1842,'2026/05/06 08:43:01:593',4,0.000394,0.000001,2
1843,'2026/05/06 08:43:01:627',4,0.000369,0.000001,2
1844,'2026/05/06 08:43:01:661',4,0.000432,0.000001,2
1845,'2026/05/06 08:43:01:693',4,0.000369,0.000001,2
1846,'2026/05/06 08:43:01:726',4,0.000423,0.000001,2
1847,'2026/05/06 08:43:01:759',4,0.000432,0.000001,2
1848,'2026/05/06 08:43:01:793',4,0.000319,0.000001,2
1849,'2026/05/06 08:43:01:826',4,0.000313,0.000001,2
1850,'2026/05/06 08:43:01:860',4,0.000445,0.000001,2
1851,'2026/05/06 08:43:01:893',4,0.00044,0.000002,2
1852,'2026/05/06 08:43:01:925',4,0.000227,0,2
1853,'2026/05/06 08:43:01:959',4,0.000355,0.000001,2
1854,'2026/05/06 08:43:01:994',4,0.000469,0.000002,2
1855,'2026/05/06 08:43:02:025',4,0.000578,0.000002,2
1856,'2026/05/06 08:43:02:061',4,0.000261,0,2
1857,'2026/05/06 08:43:02:094',4,0.000324,0.000001,2
1858,'2026/05/06 08:43:02:127',4,0.000316,0.000001,2
1859,'2026/05/06 08:43:02:163',4,0.000277,0,2
1860,'2026/05/06 08:43:02:211',4,0.00032,0.000001,2
1861,'2026/05/06 08:43:02:243',4,0.000313,0.000001,2
1862,'2026/05/06 08:43:02:277',4,0.000489,0.000001,2
1863,'2026/05/06 08:43:02:312',4,0.000366,0.000002,2
1864,'2026/05/06 08:43:02:343',4,0.000324,0.000001,2
1865,'2026/05/06 08:43:02:375',4,0.000445,0.000001,2
1866,'2026/05/06 08:43:02:414',4,0.000348,0.000001,2
1867,'2026/05/06 08:43:02:446',4,0.000315,0.000001,2
1868,'2026/05/06 08:43:02:477',4,0.000533,0.000002,2
1869,'2026/05/06 08:43:02:510',4,0.000526,0.000002,2
1870,'2026/05/06 08:43:02:543',4,0.000426,0.000002,2
1871,'2026/05/06 08:43:02:575',4,0.000334,0.000002,2
1872,'2026/05/06 08:43:02:610',4,0.000527,0.000002,2
1873,'2026/05/06 08:43:02:643',4,0.000316,0.000001,2
1874,'2026/05/06 08:43:02:677',4,0.000309,0.000002,2
1875,'2026/05/06 08:43:02:709',4,0.000368,0.000001,2
1876,'2026/05/06 08:43:02:743',4,0.000376,0.000002,2
1877,'2026/05/06 08:43:02:778',4,0.000327,0.000001,2
1878,'2026/05/06 08:43:02:811',4,0.000405,0.000001,2
1879,'2026/05/06 08:43:02:843',4,0.000344,0.000001,2
1880,'2026/05/06 08:43:02:877',4,0.000332,0.000001,2
1881,'2026/05/06 08:43:02:913',4,0.000362,0.000001,2
1882,'2026/05/06 08:43:02:961',4,0.000561,0.000005,2
1883,'2026/05/06 08:43:02:992',4,0.000503,0.000003,2
1884,'2026/05/06 08:43:03:026',4,0.000434,0.000002,2
1885,'2026/05/06 08:43:03:059',4,0.000343,0.000001,2
1886,'2026/05/06 08:43:03:096',4,0.00029,0,2
1887,'2026/05/06 08:43:03:143',4,0.000336,0.000001,2
1888,'2026/05/06 08:43:03:178',4,0.000327,0.000001,2
1889,'2026/05/06 08:43:03:209',4,0.000328,0.000001,2
1890,'2026/05/06 08:43:03:243',4,0.000345,0.000001,2
1891,'2026/05/06 08:43:03:277',4,0.000383,0.000001,2
1892,'2026/05/06 08:43:03:311',4,0.000413,0.000001,2
1893,'2026/05/06 08:43:03:343',4,0.000483,0.000002,2
1894,'2026/05/06 08:43:03:376',4,0.000487,0.000002,2
1895,'2026/05/06 08:43:03:408',4,0.000322,0.000001,2
1896,'2026/05/06 08:43:03:443',4,0.000473,0.000004,2
1897,'2026/05/06 08:43:03:476',4,0.00045,0.000002,2
1898,'2026/05/06 08:43:03:509',4,0.000542,0.000002,2
1899,'2026/05/06 08:43:03:544',4,0.000373,0.000002,2
1900,'2026/05/06 08:43:03:576',4,0.000428,0.000001,2
1901,'2026/05/06 08:43:03:610',4,0.000367,0.000001,2
1902,'2026/05/06 08:43:03:644',4,0.000447,0.000002,2
1903,'2026/05/06 08:43:03:675',4,0.000327,0.000001,2
1904,'2026/05/06 08:43:03:712',4,0.000376,0.000001,2
1905,'2026/05/06 08:43:03:743',4,0.000277,0.000001,2
1906,'2026/05/06 08:43:03:777',4,0.000487,0.000001,2
1907,'2026/05/06 08:43:03:810',4,0.000354,0.000001,2
1908,'2026/05/06 08:43:03:844',4,0.000391,0.000001,2
1909,'2026/05/06 08:43:03:878',4,0.000465,0.000002,2
1910,'2026/05/06 08:43:03:911',4,0.000329,0.000001,2
1911,'2026/05/06 08:43:03:942',4,0.000568,0.000003,2
1912,'2026/05/06 08:43:03:976',4,0.000429,0.000001,2
1913,'2026/05/06 08:43:04:010',4,0.000551,0.000002,2
1914,'2026/05/06 08:43:04:045',4,0.000351,0.000001,2
1915,'2026/05/06 08:43:04:079',4,0.000421,0.000002,2
1916,'2026/05/06 08:43:04:111',4,0.000357,0.000001,2
1917,'2026/05/06 08:43:04:143',4,0.000523,0.000002,2
1918,'2026/05/06 08:43:04:177',4,0.000449,0.000002,2
1919,'2026/05/06 08:43:04:211',4,0.000382,0.000001,2
1920,'2026/05/06 08:43:04:243',4,0.00038,0.000001,2
1921,'2026/05/06 08:43:04:277',4,0.00049,0.000002,2
1922,'2026/05/06 08:43:04:309',4,0.00027,0.000001,2
1923,'2026/05/06 08:43:04:343',4,0.000294,0.000001,2
1924,'2026/05/06 08:43:04:376',4,0.0004,0.000001,2
1925,'2026/05/06 08:43:04:409',4,0.000482,0.000003,2
1926,'2026/05/06 08:43:04:442',4,0.00028,0.000001,2
1927,'2026/05/06 08:43:04:475',4,0.000485,0.000001,2
1928,'2026/05/06 08:43:04:510',4,0.000314,0.000001,2
1929,'2026/05/06 08:43:04:546',4,0.00034,0.000001,2
1930,'2026/05/06 08:43:04:580',4,0.000393,0.000001,2
1931,'2026/05/06 08:43:04:612',4,0.000333,0.000001,2
1932,'2026/05/06 08:43:04:646',4,0.000433,0.000001,2
1933,'2026/05/06 08:43:04:678',4,0.00028,0,2
1934,'2026/05/06 08:43:04:712',4,0.000339,0.000001,2
1935,'2026/05/06 08:43:04:745',4,0.000426,0.000001,2
1936,'2026/05/06 08:43:04:779',4,0.000347,0.000001,2
1937,'2026/05/06 08:43:04:812',4,0.000371,0.000001,2
1938,'2026/05/06 08:43:04:847',4,0.000229,0,2
1939,'2026/05/06 08:43:04:878',4,0.000247,0,2
1940,'2026/05/06 08:43:04:912',4,0.000311,0.000001,2
1941,'2026/05/06 08:43:04:944',4,0.000438,0.000001,2
1942,'2026/05/06 08:43:04:979',4,0.000342,0.000001,2
1943,'2026/05/06 08:43:05:012',4,0.000417,0.000001,2
1944,'2026/05/06 08:43:05:045',4,0.000448,0.000002,2
1945,'2026/05/06 08:43:05:080',4,0.00033,0.000001,2
1946,'2026/05/06 08:43:05:113',4,0.000334,0.000001,2
1947,'2026/05/06 08:43:05:146',4,0.000319,0.000001,2
1948,'2026/05/06 08:43:05:178',4,0.000391,0.000001,2
1949,'2026/05/06 08:43:05:213',4,0.000459,0.000002,2
1950,'2026/05/06 08:43:05:247',4,0.000402,0.000001,2
1951,'2026/05/06 08:43:05:279',4,0.000219,0,2
1952,'2026/05/06 08:43:05:313',4,0.00046,0.000002,2
1953,'2026/05/06 08:43:05:344',4,0.000226,0,2
1954,'2026/05/06 08:43:05:378',4,0.000351,0.000001,2
1955,'2026/05/06 08:43:05:412',4,0.000426,0.000001,2
1956,'2026/05/06 08:43:05:445',4,0.000315,0.000001,2
1957,'2026/05/06 08:43:05:478',4,0.000251,0,2
1958,'2026/05/06 08:43:05:513',4,0.000341,0.000001,2
1959,'2026/05/06 08:43:05:546',4,0.000472,0.000001,2
1960,'2026/05/06 08:43:05:579',4,0.000474,0.000002,2
1961,'2026/05/06 08:43:05:613',4,0.000218,0,2
1962,'2026/05/06 08:43:05:647',4,0.000329,0.000001,2
1963,'2026/05/06 08:43:05:677',4,0.000544,0.000003,2
1964,'2026/05/06 08:43:05:712',4,0.000496,0.000002,2
1965,'2026/05/06 08:43:05:745',4,0.000517,0.000006,2
1966,'2026/05/06 08:43:05:778',4,0.000459,0.000009,2
1967,'2026/05/06 08:43:05:812',4,0.000419,0.000005,2
1968,'2026/05/06 08:43:05:845',4,0.000424,0.000002,2
1969,'2026/05/06 08:43:05:878',4,0.000426,0.000002,2
1970,'2026/05/06 08:43:05:913',4,0.000319,0.000001,2
1971,'2026/05/06 08:43:05:944',4,0.000408,0.000001,2
1972,'2026/05/06 08:43:05:980',4,0.000416,0.000001,2
1973,'2026/05/06 08:43:06:012',4,0.000247,0,2
1974,'2026/05/06 08:43:06:045',4,0.000206,0,2
1975,'2026/05/06 08:43:06:078',4,0.000538,0.000002,2
1976,'2026/05/06 08:43:06:112',4,0.000538,0.000002,2
1977,'2026/05/06 08:43:06:146',4,0.000368,0.000001,2
1978,'2026/05/06 08:43:06:178',4,0.000477,0.000002,2
1979,'2026/05/06 08:43:06:211',4,0.000264,0,2
1980,'2026/05/06 08:43:06:245',4,0.00047,0.000002,2
1981,'2026/05/06 08:43:06:278',4,0.0002,0,2
1982,'2026/05/06 08:43:06:312',4,0.000247,0,2
1983,'2026/05/06 08:43:06:346',4,0.000328,0.000001,2
1984,'2026/05/06 08:43:06:379',4,0.000472,0.000002,2
1985,'2026/05/06 08:43:06:412',4,0.000347,0.000001,2
1986,'2026/05/06 08:43:06:444',4,0.00049,0.000001,2
1987,'2026/05/06 08:43:06:478',4,0.000266,0.000001,2
1988,'2026/05/06 08:43:06:512',4,0.000226,0,2
1989,'2026/05/06 08:43:06:546',4,0.000351,0.000001,2
1990,'2026/05/06 08:43:06:579',4,0.000346,0.000001,2
1991,'2026/05/06 08:43:06:612',4,0.000281,0,2
1992,'2026/05/06 08:43:06:646',4,0.000525,0.000002,2
1993,'2026/05/06 08:43:06:681',4,0.00034,0.000001,2
1994,'2026/05/06 08:43:06:712',4,0.000251,0,2
1995,'2026/05/06 08:43:06:745',4,0.000239,0,2
1996,'2026/05/06 08:43:06:778',4,0.000394,0.000001,2
1997,'2026/05/06 08:43:06:812',4,0.000329,0.000001,2
1998,'2026/05/06 08:43:06:846',4,0.000362,0.000001,2
1999,'2026/05/06 08:43:06:878',4,0.000336,0.000001,2
2000,'2026/05/06 08:43:06:913',4,0.000519,0.000002,2
2001,'2026/05/06 08:43:06:945',4,0.0005,0.000003,2
2002,'2026/05/06 08:43:06:978',4,0.000318,0.000001,2
2003,'2026/05/06 08:43:07:011',4,0.000418,0.000001,2
2004,'2026/05/06 08:43:07:045',4,0.000449,0.000002,2
2005,'2026/05/06 08:43:07:078',4,0.000222,0,2
2006,'2026/05/06 08:43:07:112',4,0.000423,0.000002,2
2007,'2026/05/06 08:43:07:145',4,0.000419,0.000001,2
2008,'2026/05/06 08:43:07:179',4,0.000371,0.000001,2
2009,'2026/05/06 08:43:07:212',4,0.000262,0,2
2010,'2026/05/06 08:43:07:245',4,0.000337,0.000001,2
2011,'2026/05/06 08:43:07:281',4,0.000296,0.000001,2
2012,'2026/05/06 08:43:07:312',4,0.000257,0,2
2013,'2026/05/06 08:43:07:344',4,0.000412,0.000001,2
2014,'2026/05/06 08:43:07:378',4,0.000349,0.000001,2
2015,'2026/05/06 08:43:07:412',4,0.000551,0.000002,2
2016,'2026/05/06 08:43:07:446',4,0.000422,0.000001,2
2017,'2026/05/06 08:43:07:478',4,0.000443,0.000001,2
2018,'2026/05/06 08:43:07:512',4,0.000425,0.000001,2
2019,'2026/05/06 08:43:07:545',4,0.000441,0.000002,2
2020,'2026/05/06 08:43:07:578',4,0.000259,0.000001,2
2021,'2026/05/06 08:43:07:612',4,0.000298,0.000001,2
2022,'2026/05/06 08:43:07:646',4,0.000375,0.000001,2
2023,'2026/05/06 08:43:07:678',4,0.000522,0.000002,2
2024,'2026/05/06 08:43:07:712',4,0.000427,0.000002,2
2025,'2026/05/06 08:43:07:745',4,0.000425,0.000002,2
2026,'2026/05/06 08:43:07:780',4,0.000571,0.000004,2
2027,'2026/05/06 08:43:07:813',4,0.00029,0.000001,2
2028,'2026/05/06 08:43:07:845',4,0.000391,0.000002,2
2029,'2026/05/06 08:43:07:878',4,0.000361,0.000001,2
2030,'2026/05/06 08:43:07:914',4,0.000413,0.000001,2
2031,'2026/05/06 08:43:07:945',4,0.000394,0.000001,2
2032,'2026/05/06 08:43:07:978',4,0.000339,0.000001,2
2033,'2026/05/06 08:43:08:013',4,0.000352,0.000001,2
2034,'2026/05/06 08:43:08:046',4,0.000605,0.000003,2
2035,'2026/05/06 08:43:08:078',4,0.00033,0.000001,2
2036,'2026/05/06 08:43:08:111',4,0.000542,0.000005,2
2037,'2026/05/06 08:43:08:145',4,0.000451,0.000003,2
2038,'2026/05/06 08:43:08:179',4,0.000412,0.000002,2
2039,'2026/05/06 08:43:08:212',4,0.000342,0.000001,2
2040,'2026/05/06 08:43:08:245',4,0.000349,0.000001,2
2041,'2026/05/06 08:43:08:278',4,0.000393,0.000001,2
2042,'2026/05/06 08:43:08:312',4,0.0005,0.000003,2
2043,'2026/05/06 08:43:08:346',4,0.000402,0.000001,2
2044,'2026/05/06 08:43:08:381',4,0.000467,0.000002,2
2045,'2026/05/06 08:43:08:412',4,0.000308,0.000001,2
2046,'2026/05/06 08:43:08:445',4,0.000369,0.000002,2
2047,'2026/05/06 08:43:08:479',4,0.000391,0.000002,2
2048,'2026/05/06 08:43:08:513',4,0.000527,0.000004,2
2049,'2026/05/06 08:43:08:546',4,0.000471,0.000003,2
2050,'2026/05/06 08:43:08:581',4,0.000601,0.000005,2
2051,'2026/05/06 08:43:08:612',4,0.000513,0.000004,2
2052,'2026/05/06 08:43:08:646',4,0.000411,0.000001,2
2053,'2026/05/06 08:43:08:678',4,0.000444,0.000002,2
2054,'2026/05/06 08:43:08:712',4,0.000357,0.000002,2
2055,'2026/05/06 08:43:08:745',4,0.000294,0.000001,2
2056,'2026/05/06 08:43:08:779',4,0.000483,0.000002,2
2057,'2026/05/06 08:43:08:812',4,0.000533,0.000002,2
2058,'2026/05/06 08:43:08:844',4,0.000422,0.000002,2
2059,'2026/05/06 08:43:08:878',4,0.000535,0.000003,2
2060,'2026/05/06 08:43:08:913',4,0.000459,0.000001,2
2061,'2026/05/06 08:43:08:947',4,0.00047,0.000002,2
2062,'2026/05/06 08:43:08:979',4,0.000281,0.000001,2
2063,'2026/05/06 08:43:09:012',4,0.00052,0.000003,2
2064,'2026/05/06 08:43:09:046',4,0.00044,0.000002,2
2065,'2026/05/06 08:43:09:079',4,0.000393,0.000001,2
2066,'2026/05/06 08:43:09:112',4,0.000363,0.000002,2
2067,'2026/05/06 08:43:09:143',4,0.00041,0.000001,2
2068,'2026/05/06 08:43:09:186',4,0.00037,0.000001,2
2069,'2026/05/06 08:43:09:220',4,0.000427,0.000002,2
2070,'2026/05/06 08:43:09:253',4,0.000584,0.000002,2
2071,'2026/05/06 08:43:09:288',4,0.000406,0.000002,2
2072,'2026/05/06 08:43:09:320',4,0.000451,0.000002,2
2073,'2026/05/06 08:43:09:353',4,0.000347,0.000001,2
2074,'2026/05/06 08:43:09:387',4,0.000512,0.000002,2
2075,'2026/05/06 08:43:09:421',4,0.000486,0.000001,2
2076,'2026/05/06 08:43:09:453',4,0.000326,0.000001,2
2077,'2026/05/06 08:43:09:486',4,0.000381,0.000001,2
2078,'2026/05/06 08:43:09:521',4,0.000415,0.000001,2
2079,'2026/05/06 08:43:09:554',4,0.000448,0.000002,2
2080,'2026/05/06 08:43:09:586',4,0.00031,0.000001,2
2081,'2026/05/06 08:43:09:620',4,0.000636,0.000003,2
2082,'2026/05/06 08:43:09:654',4,0.000304,0.000001,2
2083,'2026/05/06 08:43:09:687',4,0.00029,0.000001,2
2084,'2026/05/06 08:43:09:721',4,0.000302,0.000001,2
2085,'2026/05/06 08:43:09:754',4,0.000225,0,2
2086,'2026/05/06 08:43:09:787',4,0.000339,0.000001,2
2087,'2026/05/06 08:43:09:819',4,0.000492,0.000002,2
2088,'2026/05/06 08:43:09:854',4,0.000303,0,2
2089,'2026/05/06 08:43:09:886',4,0.000463,0.000002,2
2090,'2026/05/06 08:43:09:921',4,0.000469,0.000002,2
2091,'2026/05/06 08:43:09:952',4,0.000433,0.000002,2
2092,'2026/05/06 08:43:09:987',4,0.000232,0,2
2093,'2026/05/06 08:43:10:031',4,0.000248,0.000001,2
2094,'2026/05/06 08:43:10:061',4,0.000255,0,2
2095,'2026/05/06 08:43:10:108',4,0.000429,0.000001,2
2096,'2026/05/06 08:43:10:140',4,0.000376,0.000001,2
2097,'2026/05/06 08:43:10:173',4,0.000424,0.000001,2
2098,'2026/05/06 08:43:10:207',4,0.000316,0.000001,2
2099,'2026/05/06 08:43:10:240',4,0.000369,0.000001,2
2100,'2026/05/06 08:43:10:272',4,0.000283,0.000001,2
2101,'2026/05/06 08:43:10:306',4,0.000455,0.000001,2
2102,'2026/05/06 08:43:10:339',4,0.000407,0.000002,2
2103,'2026/05/06 08:43:10:377',4,0.000501,0.000002,2
2104,'2026/05/06 08:43:10:406',4,0.000402,0.000001,2
2105,'2026/05/06 08:43:10:441',4,0.000224,0,2
2106,'2026/05/06 08:43:10:474',4,0.000353,0.000001,2
2107,'2026/05/06 08:43:10:507',4,0.000377,0.000001,2
2108,'2026/05/06 08:43:10:541',4,0.000318,0.000001,2
2109,'2026/05/06 08:43:10:572',4,0.000383,0.000001,2
2110,'2026/05/06 08:43:10:606',4,0.000304,0.000001,2
2111,'2026/05/06 08:43:10:640',4,0.000355,0.000001,2
2112,'2026/05/06 08:43:10:674',4,0.000366,0.000001,2
2113,'2026/05/06 08:43:10:708',4,0.000341,0.000001,2
2114,'2026/05/06 08:43:10:740',4,0.000489,0.000002,2
2115,'2026/05/06 08:43:10:774',4,0.000241,0,2
2116,'2026/05/06 08:43:10:807',4,0.00034,0.000001,2
2117,'2026/05/06 08:43:10:841',4,0.000337,0.000001,2
2118,'2026/05/06 08:43:10:873',4,0.000455,0.000002,2
2119,'2026/05/06 08:43:10:907',4,0.000352,0.000002,2
2120,'2026/05/06 08:43:10:942',4,0.000334,0.000001,2
2121,'2026/05/06 08:43:10:974',4,0.000429,0.000001,2
2122,'2026/05/06 08:43:11:006',4,0.000313,0.000001,2
2123,'2026/05/06 08:43:11:040',4,0.000269,0,2
2124,'2026/05/06 08:43:11:074',4,0.000425,0.000001,2
2125,'2026/05/06 08:43:11:108',4,0.000339,0.000001,2
2126,'2026/05/06 08:43:11:140',4,0.000419,0.000001,2
2127,'2026/05/06 08:43:11:173',4,0.000233,0,2
2128,'2026/05/06 08:43:11:208',4,0.000244,0.000001,2
2129,'2026/05/06 08:43:11:241',4,0.000274,0,2
2130,'2026/05/06 08:43:11:274',4,0.000362,0.000001,2
2131,'2026/05/06 08:43:11:307',4,0.000347,0.000001,2
2132,'2026/05/06 08:43:11:340',4,0.000464,0.000001,2
2133,'2026/05/06 08:43:11:375',4,0.000332,0.000001,2
2134,'2026/05/06 08:43:11:407',4,0.000425,0.000001,2
2135,'2026/05/06 08:43:11:441',4,0.000212,0,2
2136,'2026/05/06 08:43:11:472',4,0.000338,0.000001,2
2137,'2026/05/06 08:43:11:508',4,0.000388,0.000001,2
2138,'2026/05/06 08:43:11:541',4,0.000396,0.000001,2
2139,'2026/05/06 08:43:11:574',4,0.000417,0.000001,2
2140,'2026/05/06 08:43:11:608',4,0.000509,0.000002,2
2141,'2026/05/06 08:43:11:641',4,0.000264,0.000001,2
2142,'2026/05/06 08:43:11:673',4,0.000269,0,2
2143,'2026/05/06 08:43:11:708',4,0.00036,0.000001,2
2144,'2026/05/06 08:43:11:741',4,0.000298,0.000001,2
2145,'2026/05/06 08:43:11:775',4,0.000323,0.000001,2
2146,'2026/05/06 08:43:11:807',4,0.00035,0.000001,2
2147,'2026/05/06 08:43:11:840',4,0.000333,0.000001,2
2148,'2026/05/06 08:43:11:873',4,0.000249,0.000001,2
2149,'2026/05/06 08:43:11:907',4,0.000219,0,2
2150,'2026/05/06 08:43:11:941',4,0.000395,0.000001,2
2151,'2026/05/06 08:43:11:973',4,0.000351,0.000001,2
2152,'2026/05/06 08:43:12:007',4,0.000293,0.000001,2
2153,'2026/05/06 08:43:12:040',4,0.000519,0.000002,2
2154,'2026/05/06 08:43:12:075',4,0.000434,0.000001,2
2155,'2026/05/06 08:43:12:107',4,0.000489,0.000002,2
2156,'2026/05/06 08:43:12:141',4,0.000268,0.000001,2
2157,'2026/05/06 08:43:12:173',4,0.000249,0,2
2158,'2026/05/06 08:43:12:206',4,0.000248,0,2
2159,'2026/05/06 08:43:12:241',4,0.000259,0,2
2160,'2026/05/06 08:43:12:274',4,0.000667,0.000004,2
2161,'2026/05/06 08:43:12:308',4,0.000314,0.000001,2
2162,'2026/05/06 08:43:12:342',4,0.000581,0.000002,2
2163,'2026/05/06 08:43:12:376',4,0.00033,0.000001,2
2164,'2026/05/06 08:43:12:411',4,0.000557,0.000003,2
2165,'2026/05/06 08:43:12:441',4,0.000279,0.000001,2
2166,'2026/05/06 08:43:12:477',4,0.000449,0.000001,2
2167,'2026/05/06 08:43:12:508',4,0.00031,0.000001,2
2168,'2026/05/06 08:43:12:545',4,0.000406,0.000001,2
2169,'2026/05/06 08:43:12:578',4,0.00035,0.000001,2
2170,'2026/05/06 08:43:12:608',4,0.000396,0.000001,2
2171,'2026/05/06 08:43:12:642',4,0.000203,0,2
2172,'2026/05/06 08:43:12:676',4,0.000242,0,2
2173,'2026/05/06 08:43:12:709',4,0.000368,0.000001,2
2174,'2026/05/06 08:43:12:751',4,0.000325,0.000001,2
2175,'2026/05/06 08:43:12:792',4,0.000596,0.000003,2
2176,'2026/05/06 08:43:12:826',4,0.000376,0.000001,2
2177,'2026/05/06 08:43:12:860',4,0.00038,0.000002,2
2178,'2026/05/06 08:43:12:894',4,0.000331,0.000001,2
2179,'2026/05/06 08:43:12:927',4,0.000375,0.000001,2
2180,'2026/05/06 08:43:12:960',4,0.000301,0.000001,2
2181,'2026/05/06 08:43:12:994',4,0.000369,0.000001,2
2182,'2026/05/06 08:43:13:028',4,0.000359,0.000001,2
2183,'2026/05/06 08:43:13:060',4,0.000398,0.000001,2
2184,'2026/05/06 08:43:13:095',4,0.000486,0.000001,2
2185,'2026/05/06 08:43:13:127',4,0.00034,0.000001,2
2186,'2026/05/06 08:43:13:161',4,0.000329,0.000001,2
2187,'2026/05/06 08:43:13:193',4,0.00036,0.000001,2
2188,'2026/05/06 08:43:13:225',4,0.000327,0.000001,2
2189,'2026/05/06 08:43:13:260',4,0.000517,0.000003,2
2190,'2026/05/06 08:43:13:292',4,0.000384,0.000001,2
2191,'2026/05/06 08:43:13:327',4,0.000453,0.000002,2
2192,'2026/05/06 08:43:13:361',4,0.00032,0.000001,2
2193,'2026/05/06 08:43:13:394',4,0.00038,0.000001,2
2194,'2026/05/06 08:43:13:427',4,0.000372,0.000001,2
2195,'2026/05/06 08:43:13:460',4,0.000449,0.000002,2
2196,'2026/05/06 08:43:13:492',4,0.000365,0.000001,2
2197,'2026/05/06 08:43:13:528',4,0.000465,0.000001,2
2198,'2026/05/06 08:43:13:561',4,0.000314,0.000001,2
2199,'2026/05/06 08:43:13:594',4,0.000329,0.000001,2
2200,'2026/05/06 08:43:13:627',4,0.000444,0.000001,2
2201,'2026/05/06 08:43:13:659',4,0.000401,0.000001,2
2202,'2026/05/06 08:43:13:692',4,0.000331,0.000001,2
2203,'2026/05/06 08:43:13:726',4,0.00053,0.000004,2
2204,'2026/05/06 08:43:13:761',4,0.000404,0.000004,2
2205,'2026/05/06 08:43:13:792',4,0.000477,0.000002,2
2206,'2026/05/06 08:43:13:826',4,0.000452,0.000002,2
2207,'2026/05/06 08:43:13:859',4,0.000316,0.000001,2
2208,'2026/05/06 08:43:13:893',4,0.000265,0.000001,2
2209,'2026/05/06 08:43:13:928',4,0.000375,0.000001,2
2210,'2026/05/06 08:43:13:961',4,0.000532,0.000003,2
2211,'2026/05/06 08:43:13:994',4,0.000423,0.000002,2
2212,'2026/05/06 08:43:14:028',4,0.000392,0.000001,2
2213,'2026/05/06 08:43:14:062',4,0.000321,0.000001,2
2214,'2026/05/06 08:43:14:094',4,0.000474,0.000002,2
2215,'2026/05/06 08:43:14:128',4,0.000355,0.000001,2
2216,'2026/05/06 08:43:14:161',4,0.000438,0.000001,2
2217,'2026/05/06 08:43:14:194',4,0.000375,0.000001,2
2355,'2026/05/06 08:43:42:305',6,0.000018,0,1
2356,'2026/05/06 08:43:42:340',6,0.000014,0,1
2357,'2026/05/06 08:43:42:373',6,0.000132,0,1
2358,'2026/05/06 08:43:42:405',6,0.000149,0,1
2359,'2026/05/06 08:43:42:438',6,0.000127,0,1
2360,'2026/05/06 08:43:42:472',6,0.000119,0,1
2361,'2026/05/06 08:43:42:505',6,0.000053,0,1
2362,'2026/05/06 08:43:42:540',6,0.000047,0,1
2363,'2026/05/06 08:43:42:573',6,0.000058,0,1
2364,'2026/05/06 08:43:42:604',6,0.000022,0,1
2365,'2026/05/06 08:43:42:638',6,0.00016,0,1
2366,'2026/05/06 08:43:42:672',6,0.000095,0,1
2367,'2026/05/06 08:43:42:705',6,0.000083,0,1
2368,'2026/05/06 08:43:42:740',6,0.000101,0,1
2369,'2026/05/06 08:43:42:774',6,0.00008,0,1
2370,'2026/05/06 08:43:42:804',6,0.000055,0,1
2371,'2026/05/06 08:43:42:838',6,0.000031,0,1
2372,'2026/05/06 08:43:42:872',6,0.000034,0,1
2373,'2026/05/06 08:43:42:904',6,0.000055,0,1
2374,'2026/05/06 08:43:42:940',6,0.000167,0,1
2375,'2026/05/06 08:43:42:973',6,0.000119,0,1
2376,'2026/05/06 08:43:43:005',6,0.000045,0,1
2377,'2026/05/06 08:43:43:038',6,0.000064,0,1
2378,'2026/05/06 08:43:43:072',6,0.000058,0,1
2379,'2026/05/06 08:43:43:105',6,0.000045,0,1
2380,'2026/05/06 08:43:43:138',6,0.000085,0,1
2381,'2026/05/06 08:43:43:173',6,0.000124,0,1
2382,'2026/05/06 08:43:43:205',6,0.000093,0,1
2383,'2026/05/06 08:43:43:239',6,0.000033,0,1
2384,'2026/05/06 08:43:43:273',6,0.000081,0,1
2385,'2026/05/06 08:43:43:306',6,0.000078,0,1
2386,'2026/05/06 08:43:43:338',6,0.000064,0,1
2387,'2026/05/06 08:43:43:373',6,0.000062,0,1
2388,'2026/05/06 08:43:43:405',6,0.000069,0,1
2389,'2026/05/06 08:43:43:437',6,0.000057,0,1
2390,'2026/05/06 08:43:43:472',6,0.000099,0,1
2391,'2026/05/06 08:43:43:505',6,0.000153,0,1
2392,'2026/05/06 08:43:43:540',6,0.00014,0,1
2393,'2026/05/06 08:43:43:574',6,0.000065,0,1
2394,'2026/05/06 08:43:43:605',6,0.000036,0,1
2395,'2026/05/06 08:43:43:638',6,0.000021,0,1
2396,'2026/05/06 08:43:43:672',6,0.000009,0,1
2397,'2026/05/06 08:43:43:705',6,0.000007,0,1
2398,'2026/05/06 08:43:43:739',6,0.000005,0,1
2399,'2026/05/06 08:43:43:773',6,0.000006,0,1
2400,'2026/05/06 08:43:43:806',6,0.000006,0,1
2401,'2026/05/06 08:43:43:838',6,0.000005,0,1
2402,'2026/05/06 08:43:43:872',6,0.000004,0,1
2403,'2026/05/06 08:43:43:905',6,0.000005,0,1
2404,'2026/05/06 08:43:43:939',6,0.000005,0,1
2405,'2026/05/06 08:43:43:972',6,0.000005,0,1
2406,'2026/05/06 08:43:44:006',6,0.000009,0,1
2407,'2026/05/06 08:43:44:039',6,0.000216,0.000001,1
2408,'2026/05/06 08:43:44:071',6,0.00017,0,1
2409,'2026/05/06 08:43:44:106',6,0.000096,0,1
2410,'2026/05/06 08:43:44:138',6,0.000064,0,1
2411,'2026/05/06 08:43:44:173',6,0.000078,0,1
2412,'2026/05/06 08:43:44:206',6,0.000028,0,1
2413,'2026/05/06 08:43:44:238',6,0.000041,0,1
2414,'2026/05/06 08:43:44:272',6,0.0001,0,1
2415,'2026/05/06 08:43:44:306',6,0.000178,0,1
2416,'2026/05/06 08:43:44:338',6,0.000229,0.000001,1
2417,'2026/05/06 08:43:44:373',6,0.000218,0.000001,1
2418,'2026/05/06 08:43:44:406',6,0.000133,0,1
2419,'2026/05/06 08:43:44:439',6,0.000103,0,1
2420,'2026/05/06 08:43:44:472',6,0.00009,0,1
2421,'2026/05/06 08:43:44:506',6,0.000134,0,1
2422,'2026/05/06 08:43:44:538',6,0.000081,0,1
2423,'2026/05/06 08:43:44:573',6,0.000076,0,1
2424,'2026/05/06 08:43:44:607',6,0.000149,0,1
2425,'2026/05/06 08:43:44:638',6,0.000132,0,1
2426,'2026/05/06 08:43:44:673',6,0.000088,0,1
2427,'2026/05/06 08:43:44:707',6,0.000141,0,1
2428,'2026/05/06 08:43:44:740',6,0.000164,0,1
2429,'2026/05/06 08:43:44:773',6,0.000181,0,1
2430,'2026/05/06 08:43:44:804',6,0.000137,0,1
2431,'2026/05/06 08:43:44:838',6,0.000062,0,1
2432,'2026/05/06 08:43:44:871',6,0.000036,0,1
2433,'2026/05/06 08:43:44:906',6,0.000062,0,1
2434,'2026/05/06 08:43:44:938',6,0.000026,0,1
2435,'2026/05/06 08:43:44:972',6,0.000017,0,1
2436,'2026/05/06 08:43:45:005',6,0.000048,0,1
2437,'2026/05/06 08:43:45:040',6,0.000048,0,1
2438,'2026/05/06 08:43:45:072',6,0.000039,0,1
2439,'2026/05/06 08:43:45:105',6,0.000032,0,1
2440,'2026/05/06 08:43:45:138',6,0.000082,0,1
2441,'2026/05/06 08:43:45:173',6,0.000041,0,1
2442,'2026/05/06 08:43:45:205',6,0.000089,0,1
2443,'2026/05/06 08:43:45:238',6,0.000047,0,1
2444,'2026/05/06 08:43:45:273',6,0.000094,0,1
2445,'2026/05/06 08:43:45:305',6,0.000087,0,1
2446,'2026/05/06 08:43:45:341',6,0.000039,0,1
2447,'2026/05/06 08:43:45:373',6,0.000029,0,1
2448,'2026/05/06 08:43:45:405',6,0.000013,0,1
2449,'2026/05/06 08:43:45:440',6,0.000119,0,1
2450,'2026/05/06 08:43:45:472',6,0.00012,0,1
2451,'2026/05/06 08:43:45:505',6,0.00012,0,1
2452,'2026/05/06 08:43:45:537',6,0.000084,0,1
2453,'2026/05/06 08:43:45:574',6,0.000048,0,1
2454,'2026/05/06 08:43:45:604',6,0.000023,0,1
2455,'2026/05/06 08:43:45:638',6,0.000049,0,1
2456,'2026/05/06 08:43:45:672',6,0.000071,0,1
2457,'2026/05/06 08:43:45:705',6,0.000021,0,1
2458,'2026/05/06 08:43:45:739',6,0.000013,0,1
2459,'2026/05/06 08:43:45:773',6,0.000007,0,1
2460,'2026/05/06 08:43:45:805',6,0.000009,0,1
2461,'2026/05/06 08:43:45:838',6,0.000039,0,1
2462,'2026/05/06 08:43:45:872',6,0.000038,0,1
2463,'2026/05/06 08:43:45:905',6,0.000045,0,1
2464,'2026/05/06 08:43:45:939',6,0.000014,0,1
2465,'2026/05/06 08:43:45:977',6,0.000007,0,1
2466,'2026/05/06 08:43:46:022',6,0.000005,0,1
2467,'2026/05/06 08:43:46:056',6,0.000005,0,1
2468,'2026/05/06 08:43:46:089',6,0.000005,0,1
2469,'2026/05/06 08:43:46:122',6,0.000006,0,1
2470,'2026/05/06 08:43:46:158',6,0.000007,0,1
2471,'2026/05/06 08:43:46:189',6,0.000007,0,1
2472,'2026/05/06 08:43:46:222',6,0.000008,0,1
2473,'2026/05/06 08:43:46:254',6,0.000008,0,1
2474,'2026/05/06 08:43:46:289',6,0.000008,0,1
2475,'2026/05/06 08:43:46:322',6,0.000007,0,1
2476,'2026/05/06 08:43:46:354',6,0.000025,0,1
2477,'2026/05/06 08:43:46:391',6,0.0002,0.000001,1
2478,'2026/05/06 08:43:46:423',6,0.000271,0.000001,1
2479,'2026/05/06 08:43:46:457',6,0.000132,0,1
2480,'2026/05/06 08:43:46:490',6,0.000084,0,1
2481,'2026/05/06 08:43:46:525',6,0.000013,0,1
2482,'2026/05/06 08:43:46:555',6,0.000014,0,1
2483,'2026/05/06 08:43:46:589',6,0.000095,0,1
2484,'2026/05/06 08:43:46:622',6,0.000125,0,1
2485,'2026/05/06 08:43:46:655',6,0.000031,0,1
2486,'2026/05/06 08:43:46:688',6,0.000091,0,1
2487,'2026/05/06 08:43:46:725',6,0.000082,0,1
2488,'2026/05/06 08:43:46:756',6,0.000113,0,1
2489,'2026/05/06 08:43:46:791',6,0.000042,0,1
2490,'2026/05/06 08:43:46:823',6,0.000091,0,1
2491,'2026/05/06 08:43:46:856',6,0.000343,0.000003,1
2492,'2026/05/06 08:43:46:889',6,0.000271,0.000002,1
2493,'2026/05/06 08:43:46:922',6,0.000239,0.000001,1
2494,'2026/05/06 08:43:46:956',6,0.00004,0,1
2495,'2026/05/06 08:43:46:988',6,0.000017,0,1
2496,'2026/05/06 08:43:47:022',6,0.000009,0,1
2497,'2026/05/06 08:43:47:056',6,0.000118,0,1
2498,'2026/05/06 08:43:47:089',6,0.000158,0,1
2499,'2026/05/06 08:43:47:135',6,0.000174,0,1
2500,'2026/05/06 08:43:47:177',6,0.000133,0,1
2501,'2026/05/06 08:43:47:212',6,0.000066,0,1
2502,'2026/05/06 08:43:47:247',6,0.000051,0,1
2503,'2026/05/06 08:43:47:280',6,0.000057,0,1
2504,'2026/05/06 08:43:47:312',6,0.000043,0,1
2505,'2026/05/06 08:43:47:345',6,0.000046,0,1
2506,'2026/05/06 08:43:47:378',6,0.000061,0,1
2507,'2026/05/06 08:43:47:411',6,0.000087,0,1
2508,'2026/05/06 08:43:47:444',6,0.000088,0,1
2509,'2026/05/06 08:43:47:478',6,0.00002,0,1
2510,'2026/05/06 08:43:47:512',6,0.00001,0,1
2511,'2026/05/06 08:43:47:545',6,0.000006,0,1
2512,'2026/05/06 08:43:47:590',6,0.000012,0,1
2513,'2026/05/06 08:43:47:632',6,0.000172,0,1
2514,'2026/05/06 08:43:47:666',6,0.0001,0,1
2515,'2026/05/06 08:43:47:699',6,0.00006,0,1
2516,'2026/05/06 08:43:47:733',6,0.000059,0,1
2517,'2026/05/06 08:43:47:765',6,0.000031,0,1
2518,'2026/05/06 08:43:47:799',6,0.000043,0,1
2519,'2026/05/06 08:43:47:833',6,0.00001,0,1
2520,'2026/05/06 08:43:47:867',6,0.000156,0.000001,1
2521,'2026/05/06 08:43:47:900',6,0.000127,0,1
2522,'2026/05/06 08:43:47:933',6,0.000086,0,1
2523,'2026/05/06 08:43:47:966',6,0.000112,0,1
2524,'2026/05/06 08:43:48:000',6,0.000109,0,1
2525,'2026/05/06 08:43:48:033',6,0.000026,0,1
2526,'2026/05/06 08:43:48:065',6,0.000023,0,1
2527,'2026/05/06 08:43:48:099',6,0.000033,0,1
2528,'2026/05/06 08:43:48:132',6,0.000096,0,1
2529,'2026/05/06 08:43:48:165',6,0.000143,0,1
2530,'2026/05/06 08:43:48:200',6,0.000149,0,1
2531,'2026/05/06 08:43:48:231',6,0.00015,0,1
2532,'2026/05/06 08:43:48:270',6,0.00005,0,1
2533,'2026/05/06 08:43:48:315',6,0.000045,0,1
2534,'2026/05/06 08:43:48:349',6,0.000027,0,1
2535,'2026/05/06 08:43:48:383',6,0.000015,0,1
2536,'2026/05/06 08:43:48:415',6,0.000006,0,1
2537,'2026/05/06 08:43:48:450',6,0.000007,0,1
2538,'2026/05/06 08:43:48:482',6,0.000098,0,1
2539,'2026/05/06 08:43:48:516',6,0.000097,0,1
2540,'2026/05/06 08:43:48:549',6,0.000089,0,1
2541,'2026/05/06 08:43:48:583',6,0.000021,0,1
2542,'2026/05/06 08:43:48:616',6,0.000016,0,1
2543,'2026/05/06 08:43:48:650',6,0.000061,0,1
2544,'2026/05/06 08:43:48:684',6,0.000061,0,1
2545,'2026/05/06 08:43:48:716',6,0.000029,0,1
2546,'2026/05/06 08:43:48:748',6,0.000007,0,1
2547,'2026/05/06 08:43:48:783',6,0.000005,0,1
2548,'2026/05/06 08:43:48:816',6,0.000133,0,1
2549,'2026/05/06 08:43:48:849',6,0.000121,0,1
2550,'2026/05/06 08:43:48:882',6,0.00003,0,1
2551,'2026/05/06 08:43:48:915',6,0.000055,0,1
2552,'2026/05/06 08:43:48:949',6,0.000051,0,1
2553,'2026/05/06 08:43:48:984',6,0.000012,0,1
2554,'2026/05/06 08:43:49:015',6,0.000013,0,1
2555,'2026/05/06 08:43:49:049',6,0.000012,0,1
2556,'2026/05/06 08:43:49:083',6,0.00005,0,1
2557,'2026/05/06 08:43:49:115',6,0.000017,0,1
2558,'2026/05/06 08:43:49:150',6,0.000026,0,1
2559,'2026/05/06 08:43:49:183',6,0.000042,0,1
2560,'2026/05/06 08:43:49:215',6,0.000143,0,1
2561,'2026/05/06 08:43:49:250',6,0.000081,0,1
2562,'2026/05/06 08:43:49:283',6,0.000095,0,1
2563,'2026/05/06 08:43:49:317',6,0.000092,0,1
2564,'2026/05/06 08:43:49:349',6,0.000035,0,1
2565,'2026/05/06 08:43:49:381',6,0.000037,0,1
2566,'2026/05/06 08:43:49:416',6,0.000053,0,1
2567,'2026/05/06 08:43:49:448',6,0.000059,0,1
2568,'2026/05/06 08:43:49:483',6,0.000055,0,1
2569,'2026/05/06 08:43:49:516',6,0.000022,0,1
2570,'2026/05/06 08:43:49:551',6,0.000013,0,1
2571,'2026/05/06 08:43:49:581',6,0.000017,0,1
2572,'2026/05/06 08:43:49:617',6,0.000012,0,1
2573,'2026/05/06 08:43:49:649',6,0.000048,0,1
2574,'2026/05/06 08:43:49:683',6,0.000046,0,1
2575,'2026/05/06 08:43:49:716',6,0.000046,0,1
2576,'2026/05/06 08:43:49:748',6,0.000009,0,1
2577,'2026/05/06 08:43:49:782',6,0.000005,0,1
2578,'2026/05/06 08:43:49:815',6,0.000005,0,1
2579,'2026/05/06 08:43:49:851',6,0.000004,0,1
2580,'2026/05/06 08:43:49:884',6,0.000004,0,1
2581,'2026/05/06 08:43:49:916',6,0.000005,0,1
2582,'2026/05/06 08:43:49:949',6,0.000005,0,1
2583,'2026/05/06 08:43:49:983',6,0.000004,0,1
2584,'2026/05/06 08:43:50:016',6,0.000004,0,1
2585,'2026/05/06 08:43:50:049',6,0.000004,0,1
2586,'2026/05/06 08:43:50:082',6,0.000004,0,1
2587,'2026/05/06 08:43:50:116',6,0.000036,0,1
2588,'2026/05/06 08:43:50:149',6,0.000074,0,1
2589,'2026/05/06 08:43:50:183',6,0.000061,0,1
2590,'2026/05/06 08:43:50:216',6,0.000073,0,1
2591,'2026/05/06 08:43:50:248',6,0.000025,0,1
2592,'2026/05/06 08:43:50:282',6,0.000068,0,1
2593,'2026/05/06 08:43:50:316',6,0.000013,0,1
2594,'2026/05/06 08:43:50:349',6,0.000026,0,1
2595,'2026/05/06 08:43:50:381',6,0.000073,0,1
2596,'2026/05/06 08:43:50:415',6,0.000049,0,1
2597,'2026/05/06 08:43:50:448',6,0.00003,0,1
2598,'2026/05/06 08:43:50:483',6,0.000014,0,1
2599,'2026/05/06 08:43:50:516',6,0.000012,0,1
2600,'2026/05/06 08:43:50:549',6,0.000008,0,1
2601,'2026/05/06 08:43:50:582',6,0.000195,0.000001,1
2602,'2026/05/06 08:43:50:614',6,0.000152,0,1
2603,'2026/05/06 08:43:50:649',6,0.000039,0,1
2604,'2026/05/06 08:43:50:683',6,0.00002,0,1
2605,'2026/05/06 08:43:50:716',6,0.000056,0,1
2606,'2026/05/06 08:43:50:748',6,0.000051,0,1
2607,'2026/05/06 08:43:50:782',6,0.000057,0,1
2608,'2026/05/06 08:43:50:816',6,0.000042,0,1
2609,'2026/05/06 08:43:50:849',6,0.000048,0,1
2610,'2026/05/06 08:43:50:883',6,0.000058,0,1
2611,'2026/05/06 08:43:50:916',6,0.000059,0,1
2612,'2026/05/06 08:43:50:948',6,0.000082,0,1
2613,'2026/05/06 08:43:50:982',6,0.000082,0,1
2614,'2026/05/06 08:43:51:018',6,0.00011,0,1
2615,'2026/05/06 08:43:51:053',6,0.000085,0,1
2616,'2026/05/06 08:43:51:098',6,0.000079,0,1
2617,'2026/05/06 08:43:51:132',6,0.000165,0,1
2618,'2026/05/06 08:43:51:166',6,0.000113,0,1
2619,'2026/05/06 08:43:51:199',6,0.000052,0,1
2620,'2026/05/06 08:43:51:232',6,0.000051,0,1
2621,'2026/05/06 08:43:51:266',6,0.000052,0,1
2622,'2026/05/06 08:43:51:299',6,0.000057,0,1
2623,'2026/05/06 08:43:51:333',6,0.000105,0,1
2624,'2026/05/06 08:43:51:366',6,0.000116,0,1
2625,'2026/05/06 08:43:51:401',6,0.000074,0,1
2626,'2026/05/06 08:43:51:436',6,0.000056,0,1
2627,'2026/05/06 08:43:51:466',6,0.00008,0,1
2628,'2026/05/06 08:43:51:499',6,0.000021,0,1
2629,'2026/05/06 08:43:51:533',6,0.000011,0,1
2630,'2026/05/06 08:43:51:566',6,0.000005,0,1
2631,'2026/05/06 08:43:51:598',6,0.000068,0,1
2632,'2026/05/06 08:43:51:632',6,0.000138,0.000001,1
2633,'2026/05/06 08:43:51:666',6,0.000117,0,1
2634,'2026/05/06 08:43:51:699',6,0.000107,0,1
2635,'2026/05/06 08:43:51:732',6,0.000072,0,1
2636,'2026/05/06 08:43:51:766',6,0.00008,0,1
2637,'2026/05/06 08:43:51:798',6,0.000018,0,1
2638,'2026/05/06 08:43:51:833',6,0.000069,0,1
2639,'2026/05/06 08:43:51:867',6,0.000147,0,1
2640,'2026/05/06 08:43:51:901',6,0.000143,0,1
2641,'2026/05/06 08:43:51:932',6,0.000065,0,1
2642,'2026/05/06 08:43:51:966',6,0.000059,0,1
2643,'2026/05/06 08:43:52:001',6,0.000045,0,1
2644,'2026/05/06 08:43:52:033',6,0.000034,0,1
2645,'2026/05/06 08:43:52:067',6,0.000019,0,1
2646,'2026/05/06 08:43:52:100',6,0.000059,0,1
2647,'2026/05/06 08:43:52:132',6,0.000093,0,1
2648,'2026/05/06 08:43:52:165',6,0.000027,0,1
2649,'2026/05/06 08:43:52:199',6,0.000087,0,1
2650,'2026/05/06 08:43:52:234',6,0.000134,0,1
2651,'2026/05/06 08:43:52:267',6,0.000083,0,1
2652,'2026/05/06 08:43:52:298',6,0.00007,0,1
2653,'2026/05/06 08:43:52:333',6,0.000032,0,1
2654,'2026/05/06 08:43:52:366',6,0.000115,0,1
2655,'2026/05/06 08:43:52:399',6,0.000046,0,1
2656,'2026/05/06 08:43:52:433',6,0.000012,0,1
2657,'2026/05/06 08:43:52:468',6,0.000005,0,1
2658,'2026/05/06 08:43:52:498',6,0.000004,0,1
2659,'2026/05/06 08:43:52:532',6,0.000005,0,1
2660,'2026/05/06 08:43:52:568',6,0.000004,0,1
2661,'2026/05/06 08:43:52:598',6,0.000004,0,1
2662,'2026/05/06 08:43:52:632',6,0.000005,0,1
2663,'2026/05/06 08:43:52:666',6,0.000004,0,1
2664,'2026/05/06 08:43:52:701',6,0.000004,0,1
2665,'2026/05/06 08:43:52:734',6,0.000005,0,1
2666,'2026/05/06 08:43:52:768',6,0.000005,0,1
2667,'2026/05/06 08:43:52:799',6,0.000004,0,1
2668,'2026/05/06 08:43:52:833',6,0.000005,0,1
2669,'2026/05/06 08:43:52:866',6,0.000004,0,1
2670,'2026/05/06 08:43:52:901',6,0.000052,0,1
2671,'2026/05/06 08:43:52:933',6,0.000086,0,1
2672,'2026/05/06 08:43:52:967',6,0.000149,0,1
2673,'2026/05/06 08:43:53:002',6,0.000335,0.000003,1
2674,'2026/05/06 08:43:53:033',6,0.000212,0.000001,1
2675,'2026/05/06 08:43:53:067',6,0.000127,0,1
2676,'2026/05/06 08:43:53:101',6,0.0001,0,1
2677,'2026/05/06 08:43:53:133',6,0.000148,0,1
2678,'2026/05/06 08:43:53:166',6,0.000061,0,1
2679,'2026/05/06 08:43:53:200',6,0.000077,0,1
2680,'2026/05/06 08:43:53:234',6,0.000114,0,1
2681,'2026/05/06 08:43:53:267',6,0.000086,0,1
2682,'2026/05/06 08:43:53:299',6,0.000053,0,1
2683,'2026/05/06 08:43:53:334',6,0.000162,0.000001,1
2684,'2026/05/06 08:43:53:367',6,0.000143,0.000001,1
2685,'2026/05/06 08:43:53:400',6,0.000095,0,1
2686,'2026/05/06 08:43:53:434',6,0.000093,0,1
2687,'2026/05/06 08:43:53:467',6,0.00003,0,1
2688,'2026/05/06 08:43:53:500',6,0.000013,0,1
2689,'2026/05/06 08:43:53:535',6,0.000017,0,1
2690,'2026/05/06 08:43:53:567',6,0.000215,0.000001,1
2691,'2026/05/06 08:43:53:600',6,0.000164,0,1
2692,'2026/05/06 08:43:53:633',6,0.00014,0,1
2693,'2026/05/06 08:43:53:668',6,0.000124,0,1
2694,'2026/05/06 08:43:53:701',6,0.000154,0,1
2695,'2026/05/06 08:43:53:734',6,0.000139,0,1
2696,'2026/05/06 08:43:53:767',6,0.000084,0,1
2697,'2026/05/06 08:43:53:802',6,0.000043,0,1
2698,'2026/05/06 08:43:53:836',6,0.000018,0,1
2699,'2026/05/06 08:43:53:866',6,0.000078,0,1
2700,'2026/05/06 08:43:53:900',6,0.000053,0,1
2701,'2026/05/06 08:43:53:934',6,0.000045,0,1
2702,'2026/05/06 08:43:53:968',6,0.000114,0,1
2703,'2026/05/06 08:43:54:001',6,0.000049,0,1
2704,'2026/05/06 08:43:54:034',6,0.000019,0,1
2705,'2026/05/06 08:43:54:067',6,0.000031,0,1
2706,'2026/05/06 08:43:54:101',6,0.000035,0,1
2707,'2026/05/06 08:43:54:134',6,0.000118,0,1
2708,'2026/05/06 08:43:54:166',6,0.000064,0,1
2709,'2026/05/06 08:43:54:202',6,0.000067,0,1
2710,'2026/05/06 08:43:54:233',6,0.000156,0,1
2711,'2026/05/06 08:43:54:267',6,0.000066,0,1
2712,'2026/05/06 08:43:54:302',6,0.000045,0,1
2713,'2026/05/06 08:43:54:333',6,0.000026,0,1
2714,'2026/05/06 08:43:54:367',6,0.000019,0,1
2715,'2026/05/06 08:43:54:403',6,0.000031,0,1
2716,'2026/05/06 08:43:54:434',6,0.000066,0,1
2717,'2026/05/06 08:43:54:468',6,0.000012,0,1
2718,'2026/05/06 08:43:54:502',6,0.000026,0,1
2719,'2026/05/06 08:43:54:534',6,0.000017,0,1
2720,'2026/05/06 08:43:54:567',6,0.000033,0,1
2721,'2026/05/06 08:43:54:612',6,0.000041,0,1
2722,'2026/05/06 08:43:54:654',6,0.000045,0,1
2723,'2026/05/06 08:43:54:688',6,0.000043,0,1
2724,'2026/05/06 08:43:54:737',6,0.000042,0,1
2725,'2026/05/06 08:43:54:780',6,0.000041,0,1
2726,'2026/05/06 08:43:54:814',6,0.000014,0,1
2727,'2026/05/06 08:43:54:846',6,0.00001,0,1
2728,'2026/05/06 08:43:54:881',6,0.000179,0,1
2729,'2026/05/06 08:43:54:914',6,0.000047,0,1
2730,'2026/05/06 08:43:54:948',6,0.00012,0,1
2731,'2026/05/06 08:43:54:981',6,0.000027,0,1
2732,'2026/05/06 08:43:55:012',6,0.000007,0,1
2733,'2026/05/06 08:43:55:046',6,0.000006,0,1
2734,'2026/05/06 08:43:55:080',6,0.000061,0,1
2735,'2026/05/06 08:43:55:113',6,0.000149,0.000001,1
2736,'2026/05/06 08:43:55:147',6,0.00012,0,1
2737,'2026/05/06 08:43:55:179',6,0.000143,0.000001,1
2738,'2026/05/06 08:43:55:213',6,0.000129,0.000001,1
2739,'2026/05/06 08:43:55:249',6,0.000081,0,1
2740,'2026/05/06 08:43:55:280',6,0.000076,0,1
2741,'2026/05/06 08:43:55:312',6,0.00004,0,1
2742,'2026/05/06 08:43:55:346',6,0.000037,0,1
2743,'2026/05/06 08:43:55:382',6,0.000007,0,1
2744,'2026/05/06 08:43:55:413',6,0.000027,0,1
2745,'2026/05/06 08:43:55:447',6,0.00015,0,1
2746,'2026/05/06 08:43:55:480',6,0.000105,0,1
2747,'2026/05/06 08:43:55:514',6,0.000124,0,1
2748,'2026/05/06 08:43:55:546',6,0.000075,0,1
2749,'2026/05/06 08:43:55:580',6,0.000063,0,1
2750,'2026/05/06 08:43:55:614',6,0.000046,0,1
2751,'2026/05/06 08:43:55:646',6,0.000034,0,1
2752,'2026/05/06 08:43:55:679',6,0.000034,0,1
2753,'2026/05/06 08:43:55:713',6,0.000033,0,1
2754,'2026/05/06 08:43:55:746',6,0.000098,0,1
2755,'2026/05/06 08:43:55:780',6,0.000138,0,1
2756,'2026/05/06 08:43:55:814',6,0.000149,0,1
2757,'2026/05/06 08:43:55:847',6,0.000206,0.000001,1
2758,'2026/05/06 08:43:55:881',6,0.000189,0.000001,1
2759,'2026/05/06 08:43:55:913',6,0.000071,0,1
2760,'2026/05/06 08:43:55:947',6,0.00003,0,1
2761,'2026/05/06 08:43:55:982',6,0.000026,0,1
2762,'2026/05/06 08:43:56:014',6,0.000155,0,1
2763,'2026/05/06 08:43:56:048',6,0.000198,0,1
2764,'2026/05/06 08:43:56:080',6,0.000105,0,1
2765,'2026/05/06 08:43:56:113',6,0.000062,0,1
2766,'2026/05/06 08:43:56:147',6,0.00002,0,1
2767,'2026/05/06 08:43:56:180',6,0.000016,0,1
2768,'2026/05/06 08:43:56:213',6,0.000009,0,1
2769,'2026/05/06 08:43:56:247',6,0.000008,0,1
2770,'2026/05/06 08:43:56:280',6,0.000006,0,1
2771,'2026/05/06 08:43:56:313',6,0.000005,0,1
2772,'2026/05/06 08:43:56:353',6,0.000004,0,1
2773,'2026/05/06 08:43:56:398',6,0.000003,0,1
2774,'2026/05/06 08:43:56:435',6,0.000003,0,1
2775,'2026/05/06 08:43:56:468',6,0.000003,0,1
2776,'2026/05/06 08:43:56:499',6,0.000004,0,1
2777,'2026/05/06 08:43:56:532',6,0.000004,0,1
2778,'2026/05/06 08:43:56:566',6,0.000004,0,1
2779,'2026/05/06 08:43:56:610',6,0.000004,0,1
2780,'2026/05/06 08:43:56:641',6,0.000004,0,1
2781,'2026/05/06 08:43:56:672',6,0.000003,0,1
2782,'2026/05/06 08:43:56:704',6,0.000003,0,1
2783,'2026/05/06 08:43:56:736',6,0.000003,0,1
2784,'2026/05/06 08:43:56:772',6,0.000003,0,1
2785,'2026/05/06 08:43:56:802',6,0.000003,0,1
2786,'2026/05/06 08:43:56:836',6,0.000004,0,1
2787,'2026/05/06 08:43:56:870',6,0.000003,0,1
2788,'2026/05/06 08:43:56:903',6,0.000003,0,1
2789,'2026/05/06 08:43:56:937',6,0.000003,0,1
2790,'2026/05/06 08:43:56:969',6,0.000003,0,1
2791,'2026/05/06 08:43:57:003',6,0.000003,0,1
2792,'2026/05/06 08:43:57:038',6,0.000003,0,1
2793,'2026/05/06 08:43:57:070',6,0.000003,0,1
2794,'2026/05/06 08:43:57:102',6,0.000003,0,1
2795,'2026/05/06 08:43:57:139',6,0.000003,0,1
2796,'2026/05/06 08:43:57:169',6,0.000214,0,1
2797,'2026/05/06 08:43:57:203',6,0.000423,0.000001,1
2798,'2026/05/06 08:43:57:237',6,0.000265,0.000001,1
2799,'2026/05/06 08:43:57:271',6,0.000106,0,1
2800,'2026/05/06 08:43:57:312',6,0.000093,0,1
2801,'2026/05/06 08:43:57:344',6,0.000089,0,1
2802,'2026/05/06 08:43:57:388',6,0.000043,0,1
2803,'2026/05/06 08:43:57:423',6,0.000018,0,1
2804,'2026/05/06 08:43:57:457',6,0.000051,0,1
2805,'2026/05/06 08:43:57:489',6,0.000083,0,1
2806,'2026/05/06 08:43:57:523',6,0.000092,0,1
2807,'2026/05/06 08:43:57:555',6,0.000024,0,1
2808,'2026/05/06 08:43:57:588',6,0.000114,0,1
2809,'2026/05/06 08:43:57:621',6,0.000112,0,1
2810,'2026/05/06 08:43:57:655',6,0.000016,0,1
2811,'2026/05/06 08:43:57:688',6,0.000007,0,1
2812,'2026/05/06 08:43:57:722',6,0.000004,0,1
2813,'2026/05/06 08:43:57:755',6,0.000003,0,1
2814,'2026/05/06 08:43:57:788',6,0.000004,0,1
2815,'2026/05/06 08:43:57:822',6,0.000003,0,1
2816,'2026/05/06 08:43:57:854',6,0.000003,0,1
2817,'2026/05/06 08:43:57:888',6,0.000003,0,1
2818,'2026/05/06 08:43:57:921',6,0.000003,0,1
2819,'2026/05/06 08:43:57:955',6,0.000003,0,1
2820,'2026/05/06 08:43:57:989',6,0.000003,0,1
2821,'2026/05/06 08:43:58:022',6,0.000003,0,1
2822,'2026/05/06 08:43:58:054',6,0.000003,0,1
2823,'2026/05/06 08:43:58:090',6,0.000003,0,1
2824,'2026/05/06 08:43:58:122',6,0.000003,0,1
2825,'2026/05/06 08:43:58:155',6,0.000003,0,1
2826,'2026/05/06 08:43:58:189',6,0.000003,0,1
2827,'2026/05/06 08:43:58:222',6,0.000004,0,1
2828,'2026/05/06 08:43:58:254',6,0.000003,0,1
2829,'2026/05/06 08:43:58:290',6,0.000004,0,1
2830,'2026/05/06 08:43:58:323',6,0.000004,0,1
2831,'2026/05/06 08:43:58:356',6,0.000004,0,1
2832,'2026/05/06 08:43:58:391',6,0.000003,0,1
2833,'2026/05/06 08:43:58:439',6,0.000004,0,1
2834,'2026/05/06 08:43:58:471',6,0.000004,0,1
2835,'2026/05/06 08:43:58:505',6,0.000003,0,1
2836,'2026/05/06 08:43:58:545',6,0.00001,0,1
2837,'2026/05/06 08:43:58:589',6,0.000048,0,1
2838,'2026/05/06 08:43:58:622',6,0.000069,0,1
2839,'2026/05/06 08:43:58:656',6,0.000112,0,1
2840,'2026/05/06 08:43:58:688',6,0.000059,0,1
2841,'2026/05/06 08:43:58:721',6,0.000031,0,1
2842,'2026/05/06 08:43:58:757',6,0.00005,0,1
2843,'2026/05/06 08:43:58:793',6,0.000039,0,1
2844,'2026/05/06 08:43:58:825',6,0.000017,0,1
2845,'2026/05/06 08:43:58:858',6,0.000013,0,1
2846,'2026/05/06 08:43:58:891',6,0.000108,0,1
2847,'2026/05/06 08:43:58:924',6,0.000028,0,1
2848,'2026/05/06 08:43:58:958',6,0.00003,0,1
2849,'2026/05/06 08:43:58:992',6,0.000021,0,1
2850,'2026/05/06 08:43:59:023',6,0.000075,0,1
2851,'2026/05/06 08:43:59:058',6,0.000049,0,1
2852,'2026/05/06 08:43:59:091',6,0.000022,0,1
2853,'2026/05/06 08:43:59:126',6,0.000018,0,1
2854,'2026/05/06 08:43:59:160',6,0.000013,0,1
2855,'2026/05/06 08:43:59:192',6,0.000009,0,1
2856,'2026/05/06 08:43:59:224',6,0.000007,0,1
2857,'2026/05/06 08:43:59:258',6,0.000146,0,1
2858,'2026/05/06 08:43:59:292',6,0.000082,0,1
2859,'2026/05/06 08:43:59:326',6,0.000017,0,1
2860,'2026/05/06 08:43:59:359',6,0.000049,0,1
2861,'2026/05/06 08:43:59:392',6,0.000049,0,1
2862,'2026/05/06 08:43:59:425',6,0.000043,0,1
2863,'2026/05/06 08:43:59:458',6,0.000046,0,1
2864,'2026/05/06 08:43:59:492',6,0.000023,0,1
2865,'2026/05/06 08:43:59:524',6,0.000051,0,1
2866,'2026/05/06 08:43:59:558',6,0.000052,0,1
2867,'2026/05/06 08:43:59:592',6,0.000041,0,1
2868,'2026/05/06 08:43:59:626',6,0.000043,0,1
2869,'2026/05/06 08:43:59:659',6,0.000078,0,1
2870,'2026/05/06 08:43:59:698',6,0.000059,0,1
2871,'2026/05/06 08:43:59:744',6,0.000054,0,1
2872,'2026/05/06 08:43:59:778',6,0.000016,0,1
2873,'2026/05/06 08:43:59:811',6,0.000009,0,1
2874,'2026/05/06 08:43:59:843',6,0.000075,0,1
2875,'2026/05/06 08:43:59:877',6,0.000061,0,1
2876,'2026/05/06 08:43:59:910',6,0.000085,0,1
2877,'2026/05/06 08:43:59:943',6,0.000057,0,1
2878,'2026/05/06 08:43:59:977',6,0.000075,0,1
2879,'2026/05/06 08:44:00:012',6,0.000065,0,1
2880,'2026/05/06 08:44:00:045',6,0.000085,0,1
2881,'2026/05/06 08:44:00:076',6,0.000053,0,1
2882,'2026/05/06 08:44:00:109',6,0.000028,0,1
2883,'2026/05/06 08:44:00:143',6,0.000017,0,1
2884,'2026/05/06 08:44:00:179',6,0.000048,0,1
2885,'2026/05/06 08:44:00:209',6,0.000055,0,1
2886,'2026/05/06 08:44:00:245',6,0.000056,0,1
2887,'2026/05/06 08:44:00:276',6,0.000037,0,1
2888,'2026/05/06 08:44:00:323',6,0.00001,0,1
2889,'2026/05/06 08:44:00:354',6,0.000096,0,1
2890,'2026/05/06 08:44:00:397',6,0.00009,0,1
2891,'2026/05/06 08:44:00:431',6,0.00007,0,1
2892,'2026/05/06 08:44:00:467',6,0.000055,0,1
2893,'2026/05/06 08:44:00:498',6,0.000075,0,1
2894,'2026/05/06 08:44:00:532',6,0.000074,0,1
2895,'2026/05/06 08:44:00:564',6,0.000036,0,1
2896,'2026/05/06 08:44:00:597',6,0.000017,0,1
2897,'2026/05/06 08:44:00:631',6,0.000014,0,1
2898,'2026/05/06 08:44:00:664',6,0.000095,0,1
2899,'2026/05/06 08:44:00:697',6,0.000024,0,1
2900,'2026/05/06 08:44:00:731',6,0.000017,0,1
2901,'2026/05/06 08:44:00:764',6,0.000028,0,1
2902,'2026/05/06 08:44:00:798',6,0.000049,0,1
2903,'2026/05/06 08:44:00:832',6,0.000032,0,1
2904,'2026/05/06 08:44:00:868',6,0.000082,0,1
2905,'2026/05/06 08:44:00:902',6,0.000034,0,1
2906,'2026/05/06 08:44:00:932',6,0.000021,0,1
2907,'2026/05/06 08:44:00:966',6,0.000053,0,1
2908,'2026/05/06 08:44:01:002',6,0.00011,0,1
2909,'2026/05/06 08:44:01:035',6,0.000143,0,1
2910,'2026/05/06 08:44:01:069',6,0.000094,0,1
2911,'2026/05/06 08:44:01:103',6,0.000058,0,1
2912,'2026/05/06 08:44:01:152',6,0.000104,0,1
2913,'2026/05/06 08:44:33:078',7,0.000007,0,2
2914,'2026/05/06 08:44:33:114',7,0.000008,0,2
2915,'2026/05/06 08:44:33:145',7,0.000008,0,2
2916,'2026/05/06 08:44:33:180',7,0.000007,0,2
2917,'2026/05/06 08:44:33:214',7,0.000006,0,2
2918,'2026/05/06 08:44:33:246',7,0.000005,0,2
2919,'2026/05/06 08:44:33:278',7,0.000014,0,2
2920,'2026/05/06 08:44:33:313',7,0.006812,0.000112,2
2921,'2026/05/06 08:44:33:345',7,0.000404,0.000001,2
2922,'2026/05/06 08:44:33:378',7,0.000205,0,2
2923,'2026/05/06 08:44:33:412',7,0.000096,0,2
2924,'2026/05/06 08:44:33:443',7,0.000042,0,2
2925,'2026/05/06 08:44:33:476',7,0.000026,0,2
2926,'2026/05/06 08:44:33:512',7,0.000015,0,2
2927,'2026/05/06 08:44:33:543',7,0.000011,0,2
2928,'2026/05/06 08:44:33:578',7,0.000528,0.000001,2
2929,'2026/05/06 08:44:33:612',7,0.000191,0,2
2930,'2026/05/06 08:44:33:645',7,0.000095,0,2
2931,'2026/05/06 08:44:33:678',7,0.000035,0,2
2932,'2026/05/06 08:44:33:711',7,0.000019,0,2
2933,'2026/05/06 08:44:33:745',7,0.000013,0,2
2934,'2026/05/06 08:44:33:777',7,0.001487,0.000001,2
2935,'2026/05/06 08:44:33:812',7,0.000855,0.000004,2
2936,'2026/05/06 08:44:33:845',7,0.000295,0,2
2937,'2026/05/06 08:44:33:878',7,0.000156,0,2
2938,'2026/05/06 08:44:33:908',7,0.000071,0,2
2939,'2026/05/06 08:44:33:952',7,0.000035,0,2
2940,'2026/05/06 08:44:33:984',7,0.000027,0,2
2941,'2026/05/06 08:44:34:033',7,0.006232,0.000012,2
2942,'2026/05/06 08:44:34:065',7,0.000414,0,2
2943,'2026/05/06 08:44:34:111',7,0.000137,0,2
2944,'2026/05/06 08:44:34:143',7,0.000069,0,2
2945,'2026/05/06 08:44:34:176',7,0.000034,0,2
2946,'2026/05/06 08:44:34:210',7,0.000019,0,2
2947,'2026/05/06 08:44:34:251',7,0.000012,0,2
2948,'2026/05/06 08:44:34:293',7,0.000586,0.000001,2
2949,'2026/05/06 08:44:34:326',7,0.000313,0,2
2950,'2026/05/06 08:44:34:361',7,0.000132,0,2
2951,'2026/05/06 08:44:34:395',7,0.000045,0,2
2952,'2026/05/06 08:44:34:426',7,0.000025,0,2
2953,'2026/05/06 08:44:34:460',7,0.000016,0,2
2954,'2026/05/06 08:44:34:492',7,0.000011,0,2
2955,'2026/05/06 08:44:34:528',7,0.000445,0,2
2956,'2026/05/06 08:44:34:562',7,0.00103,0.000002,2
2957,'2026/05/06 08:44:34:595',7,0.00037,0,2
2958,'2026/05/06 08:44:34:631',7,0.000097,0,2
2959,'2026/05/06 08:44:34:661',7,0.00006,0,2
2960,'2026/05/06 08:44:34:695',7,0.000034,0,2
2961,'2026/05/06 08:44:34:728',7,0.000029,0,2
2962,'2026/05/06 08:44:34:762',7,0.002184,0.000002,2
2963,'2026/05/06 08:44:34:795',7,0.000943,0.000001,2
2964,'2026/05/06 08:44:34:829',7,0.000303,0,2
2965,'2026/05/06 08:44:34:862',7,0.000129,0,2
2966,'2026/05/06 08:44:34:894',7,0.000063,0,2
2967,'2026/05/06 08:44:34:928',7,0.00004,0,2
2968,'2026/05/06 08:44:34:961',7,0.000024,0,2
2969,'2026/05/06 08:44:34:996',7,0.000014,0,2
2970,'2026/05/06 08:44:35:028',7,0.000012,0,2
2971,'2026/05/06 08:44:35:062',7,0.000385,0.000001,2
2972,'2026/05/06 08:44:35:094',7,0.000287,0,2
2973,'2026/05/06 08:44:35:129',7,0.000111,0,2
2974,'2026/05/06 08:44:35:161',7,0.000043,0,2
2975,'2026/05/06 08:44:35:195',7,0.000024,0,2
2976,'2026/05/06 08:44:35:229',7,0.000017,0,2
2977,'2026/05/06 08:44:35:262',7,0.000013,0,2
2978,'2026/05/06 08:44:35:297',7,0.002347,0.000002,2
2979,'2026/05/06 08:44:35:328',7,0.000287,0,2
2980,'2026/05/06 08:44:35:362',7,0.000287,0,2
2981,'2026/05/06 08:44:35:395',7,0.000079,0,2
2982,'2026/05/06 08:44:35:431',7,0.000027,0,2
2983,'2026/05/06 08:44:35:463',7,0.000016,0,2
2984,'2026/05/06 08:44:35:495',7,0.000012,0,2
2985,'2026/05/06 08:44:35:530',7,0.007205,0.000028,2
2986,'2026/05/06 08:44:35:561',7,0.000704,0,2
2987,'2026/05/06 08:44:35:596',7,0.000166,0,2
2988,'2026/05/06 08:44:35:628',7,0.000159,0,2
2989,'2026/05/06 08:44:35:661',7,0.000064,0,2
2990,'2026/05/06 08:44:35:696',7,0.000024,0,2
2991,'2026/05/06 08:44:35:730',7,0.000013,0,2
2992,'2026/05/06 08:44:35:762',7,0.000007,0,2
2993,'2026/05/06 08:44:35:796',7,0.005623,0.000058,2
2994,'2026/05/06 08:44:35:828',7,0.000643,0.000002,2
2995,'2026/05/06 08:44:35:862',7,0.000189,0,2
2996,'2026/05/06 08:44:35:896',7,0.000095,0,2
2997,'2026/05/06 08:44:35:929',7,0.000066,0,2
2998,'2026/05/06 08:44:35:963',7,0.000041,0,2
2999,'2026/05/06 08:44:35:995',7,0.000024,0,2
3000,'2026/05/06 08:44:36:029',7,0.001749,0.000003,2
3001,'2026/05/06 08:44:36:061',7,0.001006,0.000006,2
3002,'2026/05/06 08:44:36:096',7,0.000312,0.000001,2
3003,'2026/05/06 08:44:36:128',7,0.000153,0,2
3004,'2026/05/06 08:44:36:161',7,0.000069,0,2
3005,'2026/05/06 08:44:36:195',7,0.000035,0,2
3006,'2026/05/06 08:44:36:225',7,0.000023,0,2
3007,'2026/05/06 08:44:36:266',7,0.00001,0,2
3008,'2026/05/06 08:44:36:301',7,0.004698,0.000012,2
3009,'2026/05/06 08:44:36:334',7,0.000402,0,2
3010,'2026/05/06 08:44:36:366',7,0.00016,0,2
3011,'2026/05/06 08:44:36:401',7,0.000083,0,2
3012,'2026/05/06 08:44:36:433',7,0.000045,0,2
3013,'2026/05/06 08:44:36:468',7,0.000018,0,2
3014,'2026/05/06 08:44:36:500',7,0.000014,0,2
3015,'2026/05/06 08:44:36:535',7,0.000007,0,2
3016,'2026/05/06 08:44:36:567',7,0.003048,0.000007,2
3017,'2026/05/06 08:44:36:601',7,0.000579,0,2
3018,'2026/05/06 08:44:36:633',7,0.000178,0,2
3019,'2026/05/06 08:44:36:666',7,0.000063,0,2
3020,'2026/05/06 08:44:36:700',7,0.000035,0,2
3021,'2026/05/06 08:44:36:735',7,0.000022,0,2
3022,'2026/05/06 08:44:36:767',7,0.000015,0,2
3023,'2026/05/06 08:44:36:801',7,0.000009,0,2
3024,'2026/05/06 08:44:36:833',7,0.007117,0.000055,2
3025,'2026/05/06 08:44:36:868',7,0.000504,0.000001,2
3026,'2026/05/06 08:44:36:900',7,0.000123,0,2
3027,'2026/05/06 08:44:36:936',7,0.000071,0,2
3028,'2026/05/06 08:44:36:974',7,0.000043,0,2
3029,'2026/05/06 08:44:37:019',7,0.000019,0,2
3030,'2026/05/06 08:44:37:052',7,0.000013,0,2
3031,'2026/05/06 08:44:37:084',7,0.007172,0.000026,2
3032,'2026/05/06 08:44:37:118',7,0.000462,0.000001,2
3033,'2026/05/06 08:44:37:151',7,0.000186,0,2
3034,'2026/05/06 08:44:37:185',7,0.00012,0,2
3035,'2026/05/06 08:44:37:217',7,0.000047,0,2
3036,'2026/05/06 08:44:37:254',7,0.000033,0,2
3037,'2026/05/06 08:44:37:300',7,0.000013,0,2
3038,'2026/05/06 08:44:37:334',7,0.000011,0,2
3039,'2026/05/06 08:44:37:371',7,0.000873,0.000003,2
3040,'2026/05/06 08:44:37:404',7,0.000515,0.000001,2
3041,'2026/05/06 08:44:37:437',7,0.000114,0,2
3042,'2026/05/06 08:44:37:473',7,0.000077,0,2
3043,'2026/05/06 08:44:37:505',7,0.00004,0,2
3044,'2026/05/06 08:44:37:538',7,0.000029,0,2
3045,'2026/05/06 08:44:37:572',7,0.000014,0,2
3046,'2026/05/06 08:44:37:605',7,0.000988,0.000002,2
3047,'2026/05/06 08:44:37:637',7,0.000581,0.000001,2
3048,'2026/05/06 08:44:37:672',7,0.000197,0,2
3049,'2026/05/06 08:44:37:706',7,0.000157,0,2
3050,'2026/05/06 08:44:37:738',7,0.000068,0,2
3051,'2026/05/06 08:44:37:772',7,0.000027,0,2
3052,'2026/05/06 08:44:37:806',7,0.000013,0,2
3053,'2026/05/06 08:44:37:838',7,0.000011,0,2
3054,'2026/05/06 08:44:37:874',7,0.001148,0.000004,2
3055,'2026/05/06 08:44:37:904',7,0.000404,0.000001,2
3056,'2026/05/06 08:44:37:938',7,0.000185,0,2
3057,'2026/05/06 08:44:37:972',7,0.000109,0,2
3058,'2026/05/06 08:44:38:005',7,0.000068,0,2
3059,'2026/05/06 08:44:38:038',7,0.000034,0,2
3060,'2026/05/06 08:44:38:072',7,0.000016,0,2
3061,'2026/05/06 08:44:38:104',7,0.000434,0,2
3062,'2026/05/06 08:44:38:139',7,0.000349,0,2
3063,'2026/05/06 08:44:38:172',7,0.000146,0,2
3064,'2026/05/06 08:44:38:205',7,0.000078,0,2
3065,'2026/05/06 08:44:38:239',7,0.000039,0,2
3066,'2026/05/06 08:44:38:272',7,0.000021,0,2
3067,'2026/05/06 08:44:38:306',7,0.000016,0,2
3068,'2026/05/06 08:44:38:338',7,0.000009,0,2
3069,'2026/05/06 08:44:38:372',7,0.000426,0,2
3070,'2026/05/06 08:44:38:406',7,0.000141,0,2
3071,'2026/05/06 08:44:38:438',7,0.000093,0,2
3072,'2026/05/06 08:44:38:472',7,0.000037,0,2
3073,'2026/05/06 08:44:38:506',7,0.000019,0,2
3074,'2026/05/06 08:44:38:539',7,0.000013,0,2
3075,'2026/05/06 08:44:38:573',7,0.000008,0,2
3076,'2026/05/06 08:44:38:606',7,0.003092,0.000016,2
3077,'2026/05/06 08:44:38:638',7,0.000335,0.000001,2
3078,'2026/05/06 08:44:38:671',7,0.000152,0,2
3079,'2026/05/06 08:44:38:705',7,0.000104,0,2
3080,'2026/05/06 08:44:38:738',7,0.000033,0,2
3081,'2026/05/06 08:44:38:772',7,0.000031,0,2
3082,'2026/05/06 08:44:38:805',7,0.000016,0,2
3083,'2026/05/06 08:44:38:841',7,0.003882,0.000019,2
3084,'2026/05/06 08:44:38:871',7,0.00054,0.000001,2
3085,'2026/05/06 08:44:38:904',7,0.000164,0,2
3086,'2026/05/06 08:44:38:938',7,0.000078,0,2
3087,'2026/05/06 08:44:38:972',7,0.000063,0,2
3088,'2026/05/06 08:44:39:006',7,0.000031,0,2
3089,'2026/05/06 08:44:39:039',7,0.000025,0,2
3090,'2026/05/06 08:44:39:073',7,0.000017,0,2
3091,'2026/05/06 08:44:39:105',7,0.00123,0.000011,2
3092,'2026/05/06 08:44:39:138',7,0.000295,0.000001,2
3093,'2026/05/06 08:44:39:172',7,0.000102,0,2
3094,'2026/05/06 08:44:39:204',7,0.00005,0,2
3095,'2026/05/06 08:44:39:239',7,0.000037,0,2
3096,'2026/05/06 08:44:39:273',7,0.000022,0,2
3097,'2026/05/06 08:44:39:304',7,0.00114,0.000001,2
3098,'2026/05/06 08:44:39:339',7,0.000524,0.000001,2
3099,'2026/05/06 08:44:39:372',7,0.000142,0,2
3100,'2026/05/06 08:44:39:407',7,0.000059,0,2
3101,'2026/05/06 08:44:39:448',7,0.000036,0,2
3102,'2026/05/06 08:44:39:493',7,0.000021,0,2
3103,'2026/05/06 08:44:39:523',7,0.000012,0,2
3104,'2026/05/06 08:44:39:556',7,0.001702,0.000004,2
3105,'2026/05/06 08:44:39:592',7,0.000406,0,2
3106,'2026/05/06 08:44:39:626',7,0.000109,0,2
3107,'2026/05/06 08:44:39:660',7,0.000067,0,2
3108,'2026/05/06 08:44:39:692',7,0.000027,0,2
3109,'2026/05/06 08:44:39:727',7,0.000015,0,2
3110,'2026/05/06 08:44:39:761',7,0.000011,0,2
3111,'2026/05/06 08:44:39:795',7,0.00035,0,2
3112,'2026/05/06 08:44:39:826',7,0.000759,0.000001,2
3113,'2026/05/06 08:44:39:861',7,0.000258,0,2
3114,'2026/05/06 08:44:39:894',7,0.000126,0,2
3115,'2026/05/06 08:44:39:927',7,0.000074,0,2
3116,'2026/05/06 08:44:39:960',7,0.000033,0,2
3117,'2026/05/06 08:44:39:993',7,0.000031,0,2
3118,'2026/05/06 08:44:40:027',7,0.000017,0,2
3119,'2026/05/06 08:44:40:060',7,0.003881,0.000015,2
3120,'2026/05/06 08:44:40:095',7,0.000206,0,2
3121,'2026/05/06 08:44:40:127',7,0.000096,0,2
3122,'2026/05/06 08:44:40:160',7,0.000058,0,2
3123,'2026/05/06 08:44:40:194',7,0.000029,0,2
3124,'2026/05/06 08:44:40:225',7,0.000015,0,2
3125,'2026/05/06 08:44:40:261',7,0.000011,0,2
3126,'2026/05/06 08:44:40:292',7,0.002195,0.000003,2
3127,'2026/05/06 08:44:40:326',7,0.000775,0.000002,2
3128,'2026/05/06 08:44:40:360',7,0.000194,0,2
3129,'2026/05/06 08:44:40:394',7,0.000153,0,2
3130,'2026/05/06 08:44:40:427',7,0.000071,0,2
3131,'2026/05/06 08:44:40:462',7,0.000028,0,2
3132,'2026/05/06 08:44:40:493',7,0.000016,0,2
3133,'2026/05/06 08:44:40:525',7,0.000011,0,2
3134,'2026/05/06 08:44:40:561',7,0.00073,0.000002,2
3135,'2026/05/06 08:44:40:594',7,0.00037,0.000001,2
3136,'2026/05/06 08:44:40:627',7,0.000137,0,2
3137,'2026/05/06 08:44:40:662',7,0.000073,0,2
3138,'2026/05/06 08:44:40:695',7,0.00004,0,2
3139,'2026/05/06 08:44:40:728',7,0.000024,0,2
3140,'2026/05/06 08:44:40:761',7,0.000014,0,2
3141,'2026/05/06 08:44:40:793',7,0.000766,0,2
3142,'2026/05/06 08:44:40:826',7,0.000663,0.000001,2
3143,'2026/05/06 08:44:40:861',7,0.00033,0,2
3144,'2026/05/06 08:44:40:893',7,0.000116,0,2
3145,'2026/05/06 08:44:40:927',7,0.000057,0,2
3146,'2026/05/06 08:44:40:960',7,0.000024,0,2
3147,'2026/05/06 08:44:40:993',7,0.000017,0,2
3148,'2026/05/06 08:44:41:027',7,0.000011,0,2
3149,'2026/05/06 08:44:41:062',7,0.000601,0.000001,2
3150,'2026/05/06 08:44:41:094',7,0.000228,0,2
3151,'2026/05/06 08:44:41:127',7,0.000124,0,2
3152,'2026/05/06 08:44:41:162',7,0.000066,0,2
3153,'2026/05/06 08:44:41:193',7,0.000032,0,2
3154,'2026/05/06 08:44:41:227',7,0.00002,0,2
3155,'2026/05/06 08:44:41:261',7,0.000012,0,2
3156,'2026/05/06 08:44:41:294',7,0.006596,0.000042,2
3157,'2026/05/06 08:44:41:327',7,0.00054,0.000001,2
3158,'2026/05/06 08:44:41:361',7,0.000324,0,2
3159,'2026/05/06 08:44:41:393',7,0.000168,0,2
3160,'2026/05/06 08:44:41:427',7,0.000048,0,2
3161,'2026/05/06 08:44:41:460',7,0.000043,0,2
3162,'2026/05/06 08:44:41:494',7,0.000017,0,2
3163,'2026/05/06 08:44:41:527',7,0.000821,0,2
3164,'2026/05/06 08:44:41:561',7,0.000761,0.000001,2
3165,'2026/05/06 08:44:41:594',7,0.000262,0,2
3166,'2026/05/06 08:44:41:628',7,0.00014,0,2
3167,'2026/05/06 08:44:41:659',7,0.000053,0,2
3168,'2026/05/06 08:44:41:695',7,0.000036,0,2
3169,'2026/05/06 08:44:41:727',7,0.000026,0,2
3170,'2026/05/06 08:44:41:761',7,0.000048,0,2
3171,'2026/05/06 08:44:41:794',7,0.000722,0.000001,2
3172,'2026/05/06 08:44:41:827',7,0.000303,0,2
3173,'2026/05/06 08:44:41:859',7,0.000198,0,2
3174,'2026/05/06 08:44:41:896',7,0.000137,0,2
3175,'2026/05/06 08:44:41:927',7,0.000044,0,2
3176,'2026/05/06 08:44:41:961',7,0.000044,0,2
3177,'2026/05/06 08:44:41:993',7,0.000023,0,2
3178,'2026/05/06 08:44:42:028',7,0.000037,0,2
3179,'2026/05/06 08:44:42:060',7,0.001059,0.000002,2
3180,'2026/05/06 08:44:42:106',7,0.000219,0,2
3181,'2026/05/06 08:44:42:152',7,0.000074,0,2
3182,'2026/05/06 08:44:42:198',7,0.000042,0,2
3183,'2026/05/06 08:44:42:232',7,0.000021,0,2
3184,'2026/05/06 08:44:42:265',7,0.000013,0,2
3185,'2026/05/06 08:44:42:301',7,0.000008,0,2
3186,'2026/05/06 08:44:42:333',7,0.000006,0,2
3187,'2026/05/06 08:44:42:366',7,0.000003,0,2
3188,'2026/05/06 08:44:42:398',7,0.000003,0,2
3189,'2026/05/06 08:44:42:432',7,0.000002,0,2
3190,'2026/05/06 08:44:42:467',7,0.000011,0,2
3191,'2026/05/06 08:44:42:499',7,0.000055,0,2
3192,'2026/05/06 08:44:42:532',7,0.000006,0,2
