@relation dataset

@attribute ID numeric
@attribute Time date 'yyyy/MM/dd HH:mm:ss:SSS'
@attribute 'Training round' numeric
@attribute inputs-1 numeric
@attribute inputs-2 numeric
@attribute inputs-3 numeric
@attribute inputs-4 numeric
@attribute inputs-5 numeric
@attribute inputs-6 numeric
@attribute inputs-7 numeric
@attribute inputs-8 numeric
@attribute inputs-9 numeric
@attribute inputs-10 numeric
@attribute inputs-11 numeric
@attribute inputs-12 numeric
@attribute inputs-13 numeric
@attribute inputs-14 numeric
@attribute inputs-15 numeric
@attribute inputs-16 numeric
@attribute inputs-17 numeric
@attribute inputs-18 numeric
@attribute inputs-19 numeric
@attribute inputs-20 numeric
@attribute inputs-21 numeric
@attribute inputs-22 numeric
@attribute inputs-23 numeric
@attribute inputs-24 numeric
@attribute inputs-25 numeric
@attribute inputs-26 numeric
@attribute inputs-27 numeric
@attribute inputs-28 numeric
@attribute inputs-29 numeric
@attribute inputs-30 numeric
@attribute inputs-31 numeric
@attribute inputs-32 numeric
@attribute inputs-33 numeric
@attribute inputs-34 numeric
@attribute inputs-35 numeric
@attribute inputs-36 numeric
@attribute inputs-37 numeric
@attribute inputs-38 numeric
@attribute inputs-39 numeric
@attribute inputs-40 numeric
@attribute inputs-41 numeric
@attribute inputs-42 numeric
@attribute inputs-43 numeric
@attribute inputs-44 numeric
@attribute inputs-45 numeric
@attribute inputs-46 numeric
@attribute inputs-47 numeric
@attribute inputs-48 numeric
@attribute inputs-49 numeric
@attribute inputs-50 numeric
@attribute inputs-51 numeric
@attribute inputs-52 numeric
@attribute inputs-53 numeric
@attribute inputs-54 numeric
@attribute inputs-55 numeric
@attribute inputs-56 numeric
@attribute inputs-57 numeric
@attribute inputs-58 numeric
@attribute inputs-59 numeric
@attribute inputs-60 numeric
@attribute inputs-61 numeric
@attribute inputs-62 numeric
@attribute inputs-63 numeric
@attribute outputs-1 numeric
@attribute outputs-2 numeric
@attribute outputs-3 numeric

@data
1,'2026/05/06 10:37:39:970',1,0.655998,0.774315,0,0.602782,0.749875,-0.022923,0.553599,0.717289,-0.038766,0.512383,0.696504,-0.054469,0.476736,0.691368,-0.071322,0.59875,0.611423,-0.019952,0.579309,0.548026,-0.032885,0.56857,0.507001,-0.045684,0.560554,0.472237,-0.056033,0.634877,0.597549,-0.020599,0.633576,0.525822,-0.028258,0.631877,0.482326,-0.036818,0.631211,0.448524,-0.045204,0.668721,0.605721,-0.024584,0.680576,0.545001,-0.033969,0.687753,0.507286,-0.044207,0.69346,0.475984,-0.05292,0.697021,0.629791,-0.031235,0.72264,0.595467,-0.039988,0.739133,0.571277,-0.045328,0.752165,0.548362,-0.049973,1,0,0
2,'2026/05/06 10:37:40:001',1,0.655341,0.774596,0,0.60287,0.751264,-0.02357,0.553702,0.718396,-0.040021,0.512025,0.697182,-0.056148,0.476279,0.691408,-0.073404,0.598119,0.611295,-0.022223,0.57922,0.547771,-0.036012,0.568504,0.506784,-0.049166,0.560377,0.471846,-0.059713,0.634584,0.597204,-0.02265,0.633282,0.525811,-0.03114,0.631537,0.482791,-0.039811,0.630724,0.448924,-0.048214,0.66862,0.605465,-0.026331,0.680699,0.544917,-0.036601,0.687858,0.508441,-0.0466,0.693522,0.477601,-0.054976,0.697058,0.629818,-0.032661,0.722813,0.595141,-0.04218,0.739502,0.571274,-0.047537,0.752732,0.548411,-0.052043,1,0,0
3,'2026/05/06 10:37:40:033',1,0.655295,0.774462,0,0.602113,0.750372,-0.023299,0.552974,0.717986,-0.039451,0.511403,0.696754,-0.055368,0.47559,0.691313,-0.072412,0.597727,0.611471,-0.020737,0.578523,0.547725,-0.034164,0.567728,0.506371,-0.047207,0.55966,0.471138,-0.057725,0.634208,0.597578,-0.021317,0.632842,0.526366,-0.029458,0.631249,0.483043,-0.038265,0.630654,0.448985,-0.046854,0.668241,0.605637,-0.025265,0.680247,0.54536,-0.035266,0.687389,0.507702,-0.045765,0.693095,0.476059,-0.054585,0.696668,0.629526,-0.031872,0.722805,0.595012,-0.041166,0.739597,0.570561,-0.04685,0.752784,0.547186,-0.05171,1,0,0
4,'2026/05/06 10:37:40:062',1,0.654067,0.773563,0,0.601975,0.749408,-0.02288,0.55323,0.717907,-0.039246,0.512258,0.696608,-0.05555,0.477026,0.689345,-0.073,0.598054,0.611469,-0.020456,0.578468,0.54824,-0.034142,0.56767,0.507445,-0.047609,0.559863,0.472702,-0.058335,0.634329,0.597167,-0.021186,0.632915,0.525567,-0.029203,0.631693,0.48241,-0.037919,0.631378,0.449072,-0.046388,0.668331,0.605006,-0.02523,0.680237,0.544325,-0.034857,0.687727,0.507535,-0.044866,0.69367,0.477048,-0.053314,0.696811,0.628714,-0.031941,0.722429,0.594294,-0.040927,0.73908,0.570232,-0.046131,0.752224,0.547381,-0.050525,1,0,0
5,'2026/05/06 10:37:40:096',1,0.654872,0.773787,0,0.602136,0.749533,-0.023145,0.552953,0.716934,-0.039349,0.511345,0.695628,-0.055384,0.47563,0.689837,-0.072555,0.597674,0.611277,-0.020962,0.578406,0.547699,-0.034974,0.567442,0.506849,-0.048521,0.559076,0.472015,-0.059229,0.634088,0.596717,-0.021604,0.632846,0.525471,-0.029862,0.630988,0.482227,-0.038716,0.630099,0.448077,-0.047254,0.668152,0.604199,-0.025573,0.680168,0.543559,-0.035303,0.686891,0.506172,-0.045343,0.692149,0.474997,-0.05384,0.696555,0.627992,-0.03225,0.722561,0.594073,-0.041165,0.739023,0.56967,-0.046394,0.751845,0.546721,-0.05086,1,0,0
6,'2026/05/06 10:37:40:125',1,0.653601,0.772451,0,0.601938,0.748448,-0.023531,0.553415,0.717116,-0.04036,0.513112,0.696819,-0.05704,0.478036,0.690219,-0.074889,0.597461,0.610216,-0.021829,0.577836,0.547036,-0.03612,0.56681,0.506386,-0.049791,0.558675,0.471539,-0.060566,0.633819,0.596207,-0.02247,0.632231,0.52506,-0.031335,0.630256,0.481928,-0.04043,0.629355,0.448163,-0.049053,0.667757,0.604169,-0.026435,0.679891,0.543881,-0.036907,0.686747,0.507278,-0.047138,0.692193,0.476843,-0.055523,0.696022,0.627893,-0.033064,0.721902,0.593306,-0.042373,0.738605,0.5692,-0.047643,0.751682,0.546367,-0.052048,1,0,0
7,'2026/05/06 10:37:40:174',1,0.654232,0.772616,0,0.601832,0.748696,-0.024242,0.553034,0.716536,-0.040816,0.511488,0.695643,-0.057085,0.476058,0.689882,-0.074355,0.597044,0.610175,-0.021233,0.577718,0.54737,-0.035164,0.566749,0.506921,-0.048554,0.558556,0.472154,-0.059118,0.633713,0.595736,-0.021342,0.632189,0.524706,-0.029664,0.630182,0.48152,-0.0382,0.629145,0.447559,-0.046318,0.667966,0.603505,-0.024941,0.679436,0.543331,-0.034939,0.686108,0.506688,-0.044529,0.691566,0.476031,-0.052334,0.696481,0.626945,-0.031354,0.721763,0.592345,-0.040151,0.738064,0.568209,-0.04493,0.751002,0.545313,-0.048891,1,0,0
8,'2026/05/06 10:37:40:213',1,0.656036,0.772159,0,0.603499,0.749153,-0.024114,0.553585,0.716591,-0.040811,0.510468,0.695175,-0.057047,0.474398,0.688838,-0.074336,0.597351,0.609622,-0.023213,0.577529,0.545736,-0.037742,0.56647,0.504876,-0.051244,0.55825,0.470146,-0.061827,0.63348,0.595166,-0.023284,0.631416,0.525059,-0.031822,0.629506,0.481811,-0.040422,0.628669,0.447517,-0.04876,0.667436,0.603048,-0.026684,0.679453,0.543439,-0.036609,0.685472,0.506372,-0.046217,0.689998,0.47492,-0.054382,0.69595,0.627432,-0.032845,0.722078,0.593995,-0.042043,0.738009,0.568817,-0.047314,0.75049,0.54435,-0.051707,1,0,0
9,'2026/05/06 10:37:40:251',1,0.655873,0.772101,0,0.603439,0.748289,-0.023969,0.553541,0.716051,-0.04052,0.510235,0.695177,-0.056791,0.474084,0.689007,-0.074188,0.597045,0.61046,-0.021899,0.577577,0.546653,-0.036167,0.566324,0.505838,-0.0498,0.557765,0.470594,-0.060585,0.633374,0.595673,-0.022162,0.63147,0.525119,-0.030589,0.629066,0.482151,-0.039561,0.627729,0.447539,-0.048196,0.667549,0.603153,-0.025806,0.678936,0.542525,-0.035753,0.685174,0.50528,-0.045722,0.690086,0.473675,-0.054086,0.696055,0.626858,-0.032216,0.721651,0.592777,-0.041124,0.737632,0.56853,-0.046206,0.750051,0.545538,-0.050519,1,0,0
10,'2026/05/06 10:37:40:282',1,0.653803,0.770621,0,0.601413,0.746687,-0.02366,0.552464,0.71468,-0.040108,0.511557,0.694342,-0.056334,0.476207,0.689429,-0.07362,0.596592,0.608337,-0.02097,0.576907,0.545671,-0.034711,0.565949,0.505293,-0.047938,0.557596,0.470782,-0.058434,0.633073,0.594021,-0.021278,0.631414,0.522892,-0.029425,0.629486,0.480071,-0.037839,0.628393,0.446764,-0.045963,0.667342,0.60193,-0.025003,0.678584,0.541277,-0.03471,0.685279,0.504438,-0.044239,0.690606,0.473948,-0.052189,0.696087,0.625838,-0.031487,0.721302,0.591149,-0.04002,0.737536,0.567122,-0.044721,0.750301,0.544479,-0.048748,1,0,0
11,'2026/05/06 10:37:40:311',1,0.652695,0.770391,0,0.600493,0.746362,-0.02307,0.55186,0.715114,-0.039531,0.51137,0.694698,-0.055906,0.476396,0.688703,-0.073452,0.595669,0.608277,-0.021076,0.576428,0.546074,-0.035011,0.565487,0.506105,-0.048438,0.557267,0.471869,-0.059085,0.63201,0.594187,-0.021928,0.630605,0.523102,-0.030442,0.628263,0.480058,-0.039391,0.626867,0.446134,-0.04792,0.666001,0.602135,-0.026085,0.678282,0.541993,-0.036201,0.68467,0.505142,-0.046347,0.689577,0.474221,-0.054767,0.694287,0.626063,-0.032887,0.720109,0.59229,-0.041879,0.736356,0.568212,-0.04704,0.749031,0.545216,-0.051439,1,0,0
12,'2026/05/06 10:37:40:343',1,0.652323,0.771971,0,0.601572,0.747085,-0.02341,0.553295,0.716334,-0.04049,0.512508,0.695603,-0.057495,0.477355,0.687471,-0.075578,0.595665,0.608685,-0.020958,0.575358,0.545925,-0.035495,0.564256,0.505094,-0.049545,0.556324,0.470326,-0.060608,0.631884,0.594581,-0.02181,0.630132,0.52279,-0.03083,0.628828,0.479871,-0.039979,0.628283,0.447315,-0.048666,0.665954,0.602602,-0.026084,0.677335,0.541662,-0.036663,0.684361,0.504804,-0.046793,0.689676,0.474822,-0.055115,0.694655,0.626467,-0.033053,0.719981,0.5909,-0.042421,0.736049,0.5661,-0.04756,0.748253,0.542761,-0.051894,1,0,0
13,'2026/05/06 10:37:40:376',1,0.652844,0.770828,0,0.600453,0.747187,-0.023228,0.551559,0.715585,-0.039185,0.51013,0.694643,-0.054978,0.474699,0.688613,-0.071817,0.594889,0.608852,-0.020132,0.575449,0.54552,-0.033315,0.564598,0.50457,-0.046078,0.556456,0.4696,-0.056309,0.631299,0.594593,-0.020499,0.629498,0.523372,-0.02857,0.627337,0.480486,-0.037175,0.626237,0.447039,-0.045376,0.665414,0.602495,-0.024206,0.676892,0.542566,-0.034096,0.683779,0.505832,-0.044091,0.689345,0.475309,-0.052282,0.693789,0.626106,-0.030562,0.719055,0.592394,-0.039589,0.735339,0.568234,-0.044819,0.748208,0.545287,-0.049127,1,0,0
14,'2026/05/06 10:37:40:418',1,0.652211,0.77237,0,0.600725,0.747675,-0.022727,0.551933,0.716295,-0.039037,0.511828,0.695401,-0.055381,0.47648,0.688652,-0.07285,0.594871,0.607836,-0.01978,0.574991,0.545138,-0.033362,0.563778,0.504838,-0.046858,0.555341,0.470388,-0.057688,0.631241,0.593826,-0.020642,0.629555,0.523205,-0.028673,0.627534,0.480753,-0.037615,0.626317,0.448011,-0.0464,0.66524,0.60224,-0.024834,0.67698,0.540502,-0.03452,0.684009,0.50362,-0.044446,0.689356,0.473688,-0.052919,0.69367,0.627033,-0.031687,0.719143,0.591736,-0.040594,0.735086,0.567031,-0.045725,0.747343,0.543852,-0.05018,1,0,0
15,'2026/05/06 10:37:40:454',1,0.652499,0.77002,0,0.599188,0.746668,-0.022632,0.550499,0.715164,-0.038037,0.509859,0.694377,-0.053352,0.47497,0.687757,-0.069667,0.594736,0.607972,-0.018588,0.575034,0.545453,-0.031137,0.563935,0.505374,-0.043717,0.555648,0.470884,-0.05381,0.631143,0.59332,-0.018947,0.629237,0.523496,-0.025867,0.627292,0.480882,-0.033854,0.626261,0.447544,-0.041737,0.665185,0.600963,-0.022715,0.676449,0.541535,-0.031635,0.683197,0.504883,-0.041172,0.688644,0.474182,-0.049143,0.693522,0.624215,-0.029155,0.71903,0.590208,-0.037725,0.73526,0.56575,-0.042834,0.748145,0.542269,-0.047036,1,0,0
16,'2026/05/06 10:37:40:490',1,0.65291,0.770218,0,0.600159,0.746209,-0.022932,0.550851,0.715002,-0.038847,0.510399,0.69449,-0.054681,0.475177,0.688273,-0.071608,0.594797,0.607701,-0.019156,0.574918,0.545301,-0.032063,0.563801,0.505025,-0.045104,0.555437,0.47046,-0.05566,0.631159,0.593253,-0.01968,0.629153,0.52235,-0.027113,0.627268,0.480055,-0.035633,0.626363,0.447473,-0.04407,0.665289,0.601196,-0.023609,0.676152,0.540411,-0.03295,0.683099,0.503928,-0.042868,0.688686,0.474199,-0.051249,0.694004,0.62518,-0.030223,0.718761,0.590096,-0.038899,0.73449,0.565921,-0.04401,0.746659,0.543219,-0.048408,1,0,0
17,'2026/05/06 10:37:40:519',1,0.651376,0.768659,0,0.599304,0.745352,-0.023521,0.550656,0.714623,-0.039989,0.510348,0.694022,-0.056351,0.47522,0.687601,-0.073775,0.594232,0.607749,-0.020501,0.574397,0.544783,-0.033964,0.563348,0.504028,-0.047136,0.555182,0.469218,-0.057706,0.63053,0.593593,-0.020851,0.628357,0.523304,-0.029036,0.62621,0.480835,-0.03781,0.625008,0.448002,-0.046352,0.664649,0.601308,-0.024585,0.675565,0.540409,-0.034434,0.682479,0.503605,-0.044257,0.688145,0.473727,-0.052516,0.693322,0.624709,-0.031042,0.718256,0.589194,-0.039949,0.734367,0.564848,-0.045036,0.747119,0.54212,-0.049405,1,0,0
18,'2026/05/06 10:37:40:549',1,0.651304,0.76954,0,0.598717,0.74593,-0.022645,0.549948,0.713821,-0.03856,0.509757,0.693575,-0.054369,0.474433,0.687931,-0.07128,0.594101,0.606936,-0.019843,0.574701,0.544098,-0.032982,0.563607,0.503642,-0.045964,0.555311,0.469095,-0.056428,0.630228,0.593061,-0.02068,0.628663,0.521758,-0.0285,0.626878,0.479205,-0.037066,0.62625,0.446508,-0.045473,0.664045,0.601205,-0.024849,0.675453,0.54055,-0.0345,0.682592,0.503413,-0.044679,0.688368,0.472881,-0.053288,0.692483,0.625276,-0.031641,0.717834,0.590281,-0.040649,0.734369,0.565862,-0.04606,0.747497,0.542614,-0.050737,1,0,0
19,'2026/05/06 10:37:40:579',1,0.650742,0.768995,0,0.600572,0.744202,-0.022934,0.552044,0.713529,-0.039877,0.511442,0.693253,-0.056837,0.475919,0.685675,-0.074945,0.593533,0.607092,-0.020846,0.573159,0.543919,-0.034944,0.561913,0.503556,-0.048824,0.553981,0.468935,-0.059842,0.629982,0.592794,-0.021767,0.628071,0.521531,-0.030209,0.626326,0.478578,-0.039327,0.625129,0.445575,-0.048227,0.664152,0.6008,-0.025968,0.675312,0.539034,-0.035982,0.682272,0.50211,-0.045876,0.687509,0.472122,-0.054203,0.693009,0.624999,-0.032821,0.718291,0.589305,-0.04177,0.734104,0.564188,-0.046664,0.745958,0.540462,-0.050926,1,0,0
20,'2026/05/06 10:37:40:609',1,0.651565,0.768215,0,0.599931,0.744491,-0.023121,0.551106,0.713879,-0.039354,0.510894,0.693363,-0.055521,0.475692,0.686735,-0.072765,0.593956,0.607414,-0.019943,0.573422,0.54473,-0.033352,0.562166,0.503938,-0.046588,0.554053,0.468899,-0.057218,0.630403,0.592601,-0.020394,0.62833,0.522398,-0.028447,0.626631,0.479734,-0.037087,0.625627,0.446926,-0.045556,0.664542,0.599953,-0.024224,0.675483,0.539942,-0.033965,0.682512,0.503702,-0.04366,0.688046,0.474357,-0.051761,0.693189,0.623272,-0.030762,0.718141,0.588533,-0.039488,0.733823,0.564017,-0.044436,0.745749,0.541198,-0.048686,1,0,0
21,'2026/05/06 10:37:40:641',1,0.650439,0.767711,0,0.600061,0.744173,-0.022204,0.551771,0.71464,-0.038719,0.51212,0.694569,-0.055404,0.476815,0.687175,-0.073213,0.593597,0.606753,-0.01974,0.573344,0.544506,-0.033458,0.562231,0.50434,-0.047093,0.554267,0.46974,-0.058017,0.630021,0.592097,-0.021009,0.627878,0.521662,-0.029028,0.626262,0.47912,-0.037785,0.625206,0.446816,-0.0465,0.66414,0.599919,-0.025551,0.675282,0.538781,-0.035337,0.682179,0.502313,-0.044952,0.687117,0.473077,-0.053168,0.693032,0.624062,-0.032716,0.718387,0.589126,-0.041746,0.733985,0.564239,-0.04671,0.745405,0.54084,-0.051024,1,0,0
22,'2026/05/06 10:37:40:672',1,0.652196,0.769545,0,0.600606,0.745874,-0.023992,0.550942,0.714758,-0.040908,0.508882,0.693762,-0.057631,0.472998,0.686771,-0.075289,0.593827,0.607196,-0.021037,0.573836,0.544728,-0.034931,0.562597,0.504436,-0.048329,0.554293,0.470065,-0.058872,0.630256,0.592138,-0.021057,0.628361,0.52184,-0.02901,0.626613,0.479285,-0.03718,0.625631,0.446644,-0.045182,0.664465,0.599537,-0.024562,0.675574,0.539211,-0.03419,0.682628,0.502667,-0.043287,0.688088,0.473168,-0.05086,0.693039,0.623172,-0.03088,0.718284,0.588908,-0.039473,0.733991,0.564383,-0.044036,0.745815,0.541469,-0.047857,1,0,0
23,'2026/05/06 10:37:40:704',1,0.650543,0.768542,0,0.599548,0.744351,-0.023274,0.551011,0.714137,-0.040147,0.510455,0.693504,-0.057007,0.474806,0.686175,-0.075002,0.59337,0.607416,-0.020713,0.573219,0.544749,-0.034832,0.562034,0.504237,-0.048661,0.55378,0.469405,-0.05968,0.630008,0.593084,-0.021539,0.628094,0.522933,-0.030404,0.626218,0.479877,-0.039842,0.624908,0.446331,-0.04892,0.664147,0.60096,-0.025717,0.675237,0.540128,-0.036328,0.682341,0.50338,-0.04664,0.687702,0.473264,-0.055159,0.692666,0.624834,-0.032549,0.718073,0.589569,-0.042051,0.734084,0.56461,-0.04738,0.746045,0.540988,-0.051899,1,0,0
24,'2026/05/06 10:37:40:733',1,0.649844,0.76756,0,0.598954,0.74322,-0.023087,0.550226,0.713187,-0.04025,0.510111,0.692644,-0.057437,0.474753,0.685164,-0.075763,0.593251,0.606395,-0.020998,0.573156,0.543391,-0.034933,0.562022,0.50316,-0.048764,0.554188,0.468706,-0.059825,0.629783,0.591691,-0.021747,0.627795,0.521682,-0.029994,0.626126,0.478751,-0.039094,0.624985,0.445749,-0.048121,0.663912,0.599277,-0.025766,0.675252,0.537938,-0.035524,0.682346,0.501056,-0.045393,0.6876,0.471473,-0.053873,0.692644,0.623268,-0.032471,0.718009,0.588575,-0.041443,0.733806,0.563685,-0.046559,0.745566,0.540442,-0.05102,1,0,0
25,'2026/05/06 10:37:40:766',1,0.651227,0.767537,0,0.600969,0.743221,-0.023301,0.55206,0.713111,-0.0406,0.51088,0.692907,-0.05798,0.475271,0.685301,-0.076448,0.59443,0.606875,-0.020971,0.573628,0.544206,-0.035296,0.56226,0.503869,-0.049327,0.554432,0.469406,-0.060436,0.630542,0.591825,-0.02171,0.628292,0.520875,-0.030213,0.626821,0.478006,-0.039166,0.625956,0.445413,-0.047924,0.664544,0.599141,-0.025823,0.675667,0.537586,-0.035778,0.682805,0.500937,-0.045406,0.688104,0.471623,-0.053548,0.693335,0.622916,-0.03268,0.718695,0.588169,-0.041444,0.734429,0.563914,-0.046173,0.746034,0.541492,-0.050283,1,0,0
26,'2026/05/06 10:37:40:798',1,0.651743,0.767814,0,0.600107,0.744333,-0.023338,0.550837,0.713313,-0.03997,0.509976,0.692943,-0.05658,0.474757,0.686404,-0.074253,0.594513,0.607134,-0.020701,0.574897,0.544757,-0.034745,0.563739,0.504614,-0.048376,0.555479,0.470336,-0.059187,0.630594,0.592475,-0.021257,0.628766,0.521755,-0.029598,0.626768,0.479175,-0.038423,0.625511,0.446353,-0.047028,0.664629,0.599993,-0.025206,0.67598,0.539262,-0.035192,0.682957,0.502655,-0.044951,0.688372,0.472966,-0.053129,0.693213,0.623976,-0.031885,0.718678,0.589619,-0.040772,0.734501,0.565418,-0.045711,0.746387,0.542911,-0.049967,1,0,0
27,'2026/05/06 10:37:40:830',1,0.651416,0.769509,0,0.600518,0.744477,-0.023275,0.551709,0.713556,-0.040176,0.510594,0.69321,-0.057007,0.475515,0.685809,-0.074924,0.594604,0.607572,-0.020947,0.574371,0.544571,-0.034969,0.563019,0.504191,-0.048643,0.554824,0.469693,-0.059443,0.630725,0.593187,-0.02152,0.629153,0.522077,-0.03007,0.626822,0.479226,-0.039243,0.625344,0.445844,-0.047954,0.664636,0.600793,-0.0254,0.676418,0.539858,-0.035381,0.683482,0.503275,-0.045563,0.689043,0.473307,-0.053993,0.693045,0.624331,-0.031939,0.718686,0.589693,-0.040665,0.735079,0.565592,-0.045633,0.747659,0.542982,-0.049864,1,0,0
28,'2026/05/06 10:37:40:862',1,0.651732,0.770117,0,0.600164,0.746752,-0.024294,0.551336,0.715029,-0.041183,0.510655,0.693876,-0.05782,0.475483,0.687217,-0.075443,0.594717,0.607926,-0.021592,0.575128,0.544897,-0.036026,0.56385,0.504835,-0.049876,0.555293,0.470344,-0.060808,0.631086,0.5933,-0.021909,0.629,0.521918,-0.030815,0.62689,0.479079,-0.039896,0.625751,0.445478,-0.048487,0.665094,0.600997,-0.025712,0.676107,0.54033,-0.036217,0.68299,0.503945,-0.046185,0.688619,0.473677,-0.054335,0.69365,0.624751,-0.032308,0.718505,0.589787,-0.041569,0.734496,0.565884,-0.04668,0.747054,0.543229,-0.050951,1,0,0
29,'2026/05/06 10:37:40:893',1,0.651136,0.768268,0,0.600307,0.743932,-0.022523,0.551752,0.713769,-0.039056,0.511006,0.693737,-0.05568,0.475237,0.686677,-0.073495,0.594027,0.60757,-0.019957,0.573927,0.544408,-0.03347,0.562745,0.503977,-0.046884,0.554556,0.469437,-0.057622,0.630675,0.592901,-0.020848,0.628562,0.522392,-0.028974,0.626657,0.479532,-0.038191,0.625412,0.446408,-0.047229,0.664963,0.600472,-0.024964,0.675978,0.539249,-0.034713,0.683055,0.502229,-0.044886,0.688502,0.472061,-0.053531,0.693678,0.624122,-0.031668,0.719046,0.589095,-0.040499,0.735181,0.564137,-0.045658,0.747484,0.540463,-0.050176,1,0,0
30,'2026/05/06 10:37:40:925',1,0.651573,0.770332,0,0.599692,0.745581,-0.022935,0.550778,0.714313,-0.039374,0.510114,0.693384,-0.055795,0.474736,0.686323,-0.07329,0.594308,0.607298,-0.019631,0.574006,0.54429,-0.032941,0.562682,0.503888,-0.046243,0.554636,0.469396,-0.056883,0.630717,0.592817,-0.020212,0.628818,0.521787,-0.027798,0.627223,0.479087,-0.036243,0.626453,0.446585,-0.044605,0.664899,0.600725,-0.024173,0.676009,0.539789,-0.033281,0.683222,0.502916,-0.042839,0.688861,0.473201,-0.051014,0.693731,0.624747,-0.03087,0.71879,0.589798,-0.039211,0.734617,0.565279,-0.043988,0.746808,0.54227,-0.048151,1,0,0
31,'2026/05/06 10:37:40:974',1,0.651563,0.768767,0,0.599593,0.745079,-0.023634,0.550718,0.713588,-0.04017,0.508675,0.693344,-0.056549,0.473118,0.687464,-0.074009,0.593957,0.607318,-0.021301,0.574372,0.544531,-0.035484,0.563386,0.504148,-0.048871,0.555263,0.469706,-0.059394,0.630492,0.592416,-0.021717,0.628817,0.521809,-0.030139,0.626456,0.47914,-0.038642,0.625018,0.445828,-0.046756,0.664777,0.599872,-0.025546,0.676518,0.53942,-0.035575,0.682792,0.502405,-0.045069,0.687819,0.471597,-0.052932,0.693235,0.623519,-0.032119,0.719046,0.590176,-0.041118,0.735472,0.566215,-0.046007,0.748481,0.54351,-0.050061,1,0,0
32,'2026/05/06 10:37:41:007',1,0.651602,0.770194,0,0.599837,0.745403,-0.023255,0.550831,0.714512,-0.040206,0.510256,0.693517,-0.057102,0.474869,0.686236,-0.075107,0.59404,0.608268,-0.020959,0.574024,0.544932,-0.034868,0.562908,0.50423,-0.048582,0.555026,0.469738,-0.059536,0.630606,0.593508,-0.021562,0.628813,0.522837,-0.029854,0.627378,0.480023,-0.038919,0.626841,0.447228,-0.047848,0.665038,0.600866,-0.025499,0.676349,0.539284,-0.035163,0.683714,0.502317,-0.045218,0.689568,0.472615,-0.053872,0.694173,0.624536,-0.032149,0.719567,0.589043,-0.040782,0.735609,0.564413,-0.045883,0.747874,0.541641,-0.050425,1,0,0
33,'2026/05/06 10:37:41:038',1,0.651273,0.769357,0,0.599687,0.746022,-0.023593,0.551071,0.715297,-0.040293,0.510508,0.694278,-0.056824,0.475339,0.687155,-0.074363,0.594347,0.608389,-0.021163,0.574749,0.545497,-0.03506,0.56378,0.504604,-0.048441,0.55596,0.4697,-0.059165,0.630621,0.593886,-0.021783,0.628591,0.522762,-0.03037,0.627327,0.479815,-0.039066,0.627089,0.446905,-0.047541,0.664743,0.601408,-0.025836,0.676166,0.540594,-0.036166,0.683509,0.503246,-0.04618,0.689435,0.472695,-0.054593,0.69358,0.624908,-0.032617,0.719369,0.589911,-0.042139,0.735964,0.565223,-0.047629,0.748882,0.541876,-0.052301,1,0,0
34,'2026/05/06 10:37:41:070',1,0.652822,0.767523,0,0.59977,0.74496,-0.023698,0.550381,0.714048,-0.039868,0.508117,0.693921,-0.055779,0.472206,0.688795,-0.0728,0.594492,0.608021,-0.021014,0.575001,0.544933,-0.034317,0.563785,0.504388,-0.047132,0.555272,0.469468,-0.057373,0.631142,0.593209,-0.021049,0.62926,0.523118,-0.028888,0.626712,0.479955,-0.037418,0.625228,0.445587,-0.045726,0.665458,0.600688,-0.024421,0.676808,0.540929,-0.034029,0.683214,0.503848,-0.043762,0.688447,0.472745,-0.051885,0.693919,0.623979,-0.030509,0.719414,0.59014,-0.039211,0.735686,0.565831,-0.044208,0.748656,0.542672,-0.048444,1,0,0
35,'2026/05/06 10:37:41:112',1,0.652747,0.772301,0,0.600042,0.748174,-0.023114,0.550873,0.715458,-0.038899,0.509439,0.694368,-0.05458,0.473845,0.688782,-0.071309,0.595048,0.608556,-0.019554,0.575525,0.545026,-0.032948,0.564457,0.503865,-0.046007,0.556181,0.469,-0.056422,0.631194,0.594223,-0.020085,0.629659,0.522378,-0.02795,0.627758,0.479153,-0.036298,0.626819,0.445833,-0.044345,0.665261,0.602067,-0.024096,0.677018,0.541016,-0.033661,0.684172,0.504084,-0.043324,0.689922,0.473784,-0.051374,0.693815,0.626013,-0.030841,0.719357,0.59156,-0.039568,0.735645,0.56727,-0.044602,0.748405,0.544481,-0.048845,1,0,0
36,'2026/05/06 10:37:41:142',1,0.653735,0.770746,0,0.601543,0.747785,-0.024193,0.552073,0.716279,-0.041196,0.509502,0.695244,-0.057833,0.473431,0.688457,-0.075565,0.59548,0.608727,-0.022639,0.575657,0.545366,-0.037141,0.564309,0.504718,-0.05088,0.555806,0.469873,-0.061769,0.631794,0.593976,-0.022979,0.629815,0.522014,-0.03194,0.627648,0.478793,-0.040894,0.626655,0.444616,-0.049465,0.665849,0.601683,-0.026703,0.67713,0.540722,-0.037066,0.684054,0.503321,-0.047011,0.689699,0.471544,-0.055417,0.694465,0.625441,-0.033175,0.71964,0.590639,-0.042473,0.735832,0.566639,-0.047603,0.748751,0.543693,-0.052023,1,0,0
37,'2026/05/06 10:37:41:173',1,0.652764,0.770748,0,0.6005,0.746893,-0.023252,0.551437,0.715081,-0.039658,0.510006,0.69461,-0.055897,0.474486,0.688433,-0.073258,0.595221,0.609167,-0.021363,0.575599,0.545549,-0.034902,0.564515,0.504642,-0.047927,0.556412,0.469566,-0.058363,0.631631,0.594669,-0.021867,0.629883,0.523934,-0.029981,0.627851,0.480938,-0.038534,0.626917,0.447494,-0.04688,0.665815,0.602371,-0.025648,0.677329,0.541884,-0.035384,0.684395,0.504841,-0.045116,0.690408,0.474176,-0.053352,0.694266,0.625873,-0.032114,0.719709,0.591265,-0.041105,0.736344,0.566968,-0.046199,0.749811,0.544015,-0.050534,1,0,0
38,'2026/05/06 10:37:41:205',1,0.652946,0.772229,0,0.600887,0.747572,-0.023425,0.552105,0.715487,-0.040079,0.511666,0.694831,-0.056505,0.476368,0.688194,-0.074008,0.595341,0.608638,-0.021453,0.575985,0.54526,-0.03542,0.564966,0.504432,-0.048858,0.556733,0.469415,-0.059624,0.631901,0.59484,-0.022226,0.630131,0.523409,-0.030901,0.628158,0.48089,-0.039891,0.627256,0.447666,-0.048549,0.666076,0.603248,-0.026345,0.67733,0.541816,-0.036783,0.684273,0.504687,-0.04705,0.6899,0.473749,-0.055614,0.694794,0.627552,-0.033101,0.72023,0.591698,-0.042595,0.736676,0.567237,-0.047958,0.749536,0.543886,-0.052532,1,0,0
39,'2026/05/06 10:37:41:235',1,0.652475,0.772551,0,0.600128,0.748285,-0.023327,0.55136,0.716626,-0.039713,0.510886,0.695235,-0.056033,0.475734,0.688501,-0.073473,0.595932,0.609588,-0.020191,0.576128,0.546414,-0.03386,0.565116,0.505742,-0.047407,0.556887,0.470918,-0.058246,0.632031,0.595328,-0.020725,0.630311,0.523989,-0.029116,0.628452,0.480877,-0.038265,0.627394,0.447139,-0.047044,0.665905,0.60302,-0.024663,0.677743,0.541636,-0.034702,0.685079,0.504298,-0.045041,0.69085,0.47355,-0.053648,0.694406,0.626655,-0.03129,0.720413,0.591749,-0.040196,0.736866,0.567187,-0.045491,0.749562,0.544075,-0.050046,1,0,0
40,'2026/05/06 10:37:41:263',1,0.65259,0.771236,0,0.601009,0.746572,-0.023518,0.552494,0.715606,-0.040297,0.511588,0.695075,-0.056974,0.476613,0.68801,-0.074726,0.596051,0.608991,-0.02115,0.576277,0.545803,-0.03526,0.565152,0.505041,-0.048941,0.557046,0.470066,-0.059735,0.632549,0.59464,-0.021656,0.630767,0.523988,-0.030024,0.628891,0.481242,-0.038823,0.627905,0.447959,-0.047225,0.666775,0.602367,-0.025525,0.678483,0.541836,-0.035298,0.685373,0.504952,-0.044885,0.690901,0.474385,-0.052909,0.695409,0.626172,-0.032142,0.720985,0.591682,-0.040872,0.737341,0.567377,-0.045616,0.750225,0.544441,-0.049601,1,0,0
41,'2026/05/06 10:37:41:297',1,0.653141,0.772536,0,0.601854,0.747735,-0.023845,0.553249,0.715818,-0.041088,0.512176,0.69494,-0.0582,0.476814,0.688046,-0.076373,0.596418,0.609401,-0.022093,0.576872,0.546232,-0.036907,0.565866,0.506284,-0.05095,0.557864,0.471821,-0.062015,0.632774,0.595112,-0.022892,0.63117,0.523288,-0.032277,0.629062,0.480759,-0.041554,0.627789,0.447187,-0.050188,0.666675,0.603063,-0.027077,0.678646,0.541663,-0.037936,0.685426,0.504481,-0.047854,0.690695,0.473292,-0.055955,0.694979,0.627065,-0.03398,0.720843,0.592589,-0.043359,0.737131,0.568429,-0.048251,0.74969,0.54541,-0.052338,1,0,0
42,'2026/05/06 10:37:41:328',1,0.653355,0.771992,0,0.601309,0.748032,-0.023923,0.552385,0.715794,-0.040532,0.510878,0.694806,-0.056887,0.475431,0.688967,-0.074315,0.596269,0.609236,-0.021692,0.576704,0.545447,-0.035729,0.565445,0.504981,-0.049134,0.556857,0.470102,-0.059753,0.632686,0.59501,-0.021903,0.631129,0.524027,-0.030444,0.628874,0.481061,-0.039317,0.627535,0.447186,-0.047769,0.666657,0.602999,-0.025483,0.678643,0.542306,-0.035666,0.685312,0.505089,-0.045689,0.690619,0.47389,-0.053957,0.694949,0.626847,-0.031784,0.720854,0.592902,-0.040964,0.737381,0.568535,-0.046194,0.750491,0.545274,-0.050546,1,0,0
43,'2026/05/06 10:37:41:372',1,0.653704,0.771764,0,0.601139,0.74765,-0.022929,0.552162,0.715564,-0.038926,0.511338,0.694499,-0.054779,0.476038,0.688696,-0.071755,0.596309,0.609173,-0.020644,0.576575,0.545275,-0.034108,0.565751,0.504175,-0.047084,0.557679,0.469355,-0.057462,0.6327,0.594775,-0.021238,0.630844,0.523479,-0.02918,0.629107,0.480815,-0.037648,0.628383,0.447618,-0.045904,0.666908,0.602408,-0.025152,0.678731,0.542183,-0.034727,0.685519,0.504861,-0.044653,0.690867,0.473855,-0.053079,0.695524,0.626023,-0.031727,0.721268,0.592247,-0.040593,0.737684,0.568189,-0.045862,0.750557,0.54527,-0.050372,1,0,0
44,'2026/05/06 10:37:41:405',1,0.654208,0.770293,0,0.601712,0.746797,-0.023277,0.552308,0.715279,-0.039795,0.510322,0.694747,-0.056137,0.474498,0.688853,-0.073649,0.596333,0.609456,-0.022016,0.57678,0.545854,-0.036281,0.56575,0.504779,-0.049814,0.557353,0.469517,-0.06054,0.63238,0.59507,-0.022657,0.630406,0.524904,-0.03122,0.628291,0.481864,-0.04017,0.627134,0.447285,-0.048852,0.666357,0.602648,-0.026584,0.67832,0.542797,-0.036648,0.684721,0.505574,-0.046694,0.689613,0.474012,-0.055179,0.69504,0.626462,-0.033193,0.721616,0.592508,-0.042258,0.738049,0.567722,-0.047541,0.75066,0.544019,-0.052074,1,0,0
45,'2026/05/06 10:37:41:439',1,0.653772,0.771347,0,0.600891,0.747448,-0.022954,0.551442,0.715434,-0.038846,0.509987,0.694405,-0.054626,0.474125,0.689414,-0.071598,0.59577,0.609712,-0.020235,0.576312,0.546145,-0.033659,0.565235,0.505496,-0.046831,0.556763,0.470604,-0.057407,0.632116,0.595265,-0.020754,0.630619,0.524687,-0.028743,0.628297,0.482142,-0.037466,0.626905,0.448107,-0.045913,0.666188,0.602949,-0.024591,0.678278,0.542297,-0.03437,0.685176,0.504957,-0.044308,0.690739,0.473372,-0.052655,0.694588,0.626705,-0.031085,0.7207,0.592627,-0.040073,0.737094,0.568196,-0.04524,0.750135,0.544686,-0.049642,1,0,0
46,'2026/05/06 10:37:41:470',1,0.652593,0.772856,0,0.60092,0.748049,-0.023493,0.552204,0.715778,-0.040031,0.511594,0.694737,-0.056443,0.476233,0.688334,-0.073938,0.596258,0.60964,-0.020919,0.57672,0.546707,-0.035052,0.565631,0.506131,-0.04873,0.557352,0.471319,-0.059558,0.632541,0.59522,-0.021547,0.630894,0.523903,-0.030165,0.629014,0.481188,-0.039132,0.628005,0.447758,-0.047617,0.666476,0.60294,-0.025554,0.678336,0.542272,-0.035737,0.685492,0.50572,-0.045629,0.691215,0.475265,-0.053769,0.694922,0.626824,-0.03229,0.720478,0.592259,-0.0413,0.736858,0.56839,-0.046247,0.749671,0.545756,-0.0504,1,0,0
47,'2026/05/06 10:37:41:501',1,0.653242,0.770215,0,0.600593,0.746427,-0.022883,0.551687,0.7158,-0.039213,0.511372,0.69542,-0.055449,0.47636,0.689017,-0.072861,0.59635,0.60985,-0.020823,0.576641,0.546315,-0.034324,0.565659,0.505306,-0.047506,0.557458,0.470151,-0.058078,0.632835,0.595633,-0.021513,0.631071,0.524898,-0.029635,0.629036,0.482056,-0.038494,0.628113,0.448377,-0.047127,0.666783,0.603472,-0.025438,0.678272,0.543412,-0.035124,0.685191,0.506811,-0.044998,0.690974,0.476104,-0.053411,0.695007,0.627003,-0.032002,0.720447,0.592647,-0.04087,0.736871,0.568631,-0.045908,0.749998,0.545632,-0.050273,1,0,0
48,'2026/05/06 10:37:41:533',1,0.653151,0.77186,0,0.601604,0.747561,-0.023247,0.552922,0.716433,-0.039863,0.51203,0.695623,-0.056383,0.476762,0.688491,-0.073979,0.596386,0.60923,-0.020928,0.576585,0.546452,-0.034944,0.565475,0.506075,-0.048505,0.557194,0.471509,-0.059267,0.632552,0.595029,-0.021597,0.630624,0.523684,-0.030032,0.628887,0.481132,-0.038789,0.628017,0.448175,-0.047225,0.666422,0.603155,-0.025622,0.678168,0.542122,-0.035697,0.685598,0.505321,-0.045486,0.691434,0.474991,-0.053682,0.694876,0.627385,-0.032338,0.720579,0.592842,-0.041522,0.736921,0.5687,-0.046606,0.749641,0.545808,-0.050888,1,0,0
49,'2026/05/06 10:37:41:568',1,0.654155,0.77141,0,0.601439,0.74785,-0.023228,0.552397,0.716031,-0.039211,0.510509,0.695333,-0.055065,0.474825,0.689871,-0.07207,0.596415,0.60982,-0.020234,0.57691,0.546679,-0.033727,0.565827,0.505996,-0.046903,0.557637,0.471152,-0.057404,0.632805,0.595109,-0.020629,0.631089,0.524432,-0.028366,0.628931,0.481691,-0.036735,0.627792,0.448064,-0.044913,0.666957,0.602607,-0.02442,0.678734,0.542483,-0.033696,0.685434,0.505576,-0.043148,0.690914,0.474696,-0.051177,0.695466,0.626031,-0.030966,0.720975,0.592058,-0.039328,0.737151,0.568157,-0.044021,0.750084,0.545568,-0.048087,1,0,0
50,'2026/05/06 10:37:41:600',1,0.654412,0.77331,0,0.601921,0.749223,-0.023564,0.552736,0.71723,-0.039924,0.510988,0.695702,-0.056042,0.475439,0.689079,-0.073262,0.596677,0.610083,-0.02112,0.577459,0.546405,-0.035124,0.566389,0.50532,-0.048642,0.557999,0.470112,-0.05935,0.632969,0.595776,-0.021498,0.631048,0.524814,-0.029786,0.628916,0.481952,-0.03857,0.62776,0.447972,-0.047017,0.667,0.603537,-0.025243,0.678525,0.543429,-0.034871,0.685528,0.506285,-0.044563,0.691246,0.474903,-0.052804,0.695305,0.62706,-0.03174,0.720424,0.59265,-0.040455,0.736665,0.568722,-0.045352,0.749684,0.546012,-0.049553,1,0,0
51,'2026/05/06 10:37:41:631',1,0.654982,0.772693,0,0.602302,0.74919,-0.023146,0.552974,0.716747,-0.039134,0.511188,0.695251,-0.054959,0.475931,0.688748,-0.071807,0.596802,0.61018,-0.020661,0.577532,0.546311,-0.034559,0.566601,0.505273,-0.047919,0.5584,0.470525,-0.058403,0.633094,0.595581,-0.021112,0.631446,0.524905,-0.028827,0.629561,0.481969,-0.037013,0.628556,0.448361,-0.045026,0.667416,0.602964,-0.024989,0.679286,0.542427,-0.034146,0.685872,0.505393,-0.043425,0.69108,0.474659,-0.051361,0.69617,0.626447,-0.031635,0.721998,0.592211,-0.040185,0.738235,0.567731,-0.04503,0.751033,0.544779,-0.049109,1,0,0
52,'2026/05/06 10:37:41:663',1,0.654496,0.772462,0,0.603003,0.747827,-0.023198,0.554331,0.716457,-0.039766,0.513654,0.695567,-0.056275,0.478448,0.688786,-0.073801,0.597704,0.609847,-0.020338,0.577963,0.546854,-0.034157,0.566879,0.506705,-0.047682,0.558804,0.472193,-0.058396,0.633933,0.595349,-0.02086,0.632024,0.52448,-0.02893,0.630431,0.481714,-0.037573,0.629795,0.448385,-0.045894,0.667864,0.603098,-0.024762,0.679293,0.542716,-0.034322,0.686671,0.506129,-0.043902,0.692585,0.475909,-0.051932,0.696436,0.626873,-0.03139,0.721582,0.593026,-0.039921,0.737652,0.56931,-0.044587,0.750321,0.546877,-0.048534,1,0,0
53,'2026/05/06 10:37:41:694',1,0.654599,0.772736,0,0.602858,0.748582,-0.023968,0.553493,0.717027,-0.040905,0.512343,0.695828,-0.057559,0.476991,0.688967,-0.07527,0.597111,0.610641,-0.021983,0.577798,0.547195,-0.036102,0.566959,0.506493,-0.049702,0.558921,0.471634,-0.060459,0.633593,0.596411,-0.022239,0.632131,0.524866,-0.030814,0.630339,0.481948,-0.03967,0.629403,0.448452,-0.048163,0.667595,0.604361,-0.025841,0.679596,0.543581,-0.036029,0.686653,0.507399,-0.045856,0.692147,0.477396,-0.053974,0.696043,0.628191,-0.032164,0.721668,0.593066,-0.041207,0.737969,0.569096,-0.046122,0.750703,0.546529,-0.05025,1,0,0
54,'2026/05/06 10:37:41:733',1,0.654204,0.772647,0,0.601567,0.74844,-0.022942,0.55314,0.716325,-0.038688,0.512198,0.695248,-0.054327,0.476839,0.689583,-0.071134,0.597242,0.610738,-0.0201,0.57767,0.547135,-0.033569,0.566706,0.506068,-0.046572,0.558537,0.471004,-0.056946,0.633562,0.596579,-0.020796,0.631847,0.525664,-0.02887,0.629863,0.48234,-0.037608,0.628888,0.448025,-0.046008,0.667505,0.604189,-0.02484,0.679663,0.544237,-0.034643,0.686525,0.506776,-0.044684,0.692002,0.475265,-0.053064,0.69586,0.627596,-0.031552,0.72168,0.594011,-0.040499,0.738269,0.569826,-0.04568,0.751371,0.546737,-0.05007,1,0,0
55,'2026/05/06 10:37:41:775',1,0.655309,0.772674,0,0.602687,0.749286,-0.023581,0.553252,0.717053,-0.040112,0.509924,0.695797,-0.05629,0.473815,0.689497,-0.073543,0.597608,0.611041,-0.022754,0.578133,0.546933,-0.036978,0.567364,0.506126,-0.050231,0.559499,0.47134,-0.060657,0.633671,0.596314,-0.022936,0.631874,0.52638,-0.031119,0.630294,0.483395,-0.039521,0.62979,0.449029,-0.047723,0.667428,0.60387,-0.02637,0.679543,0.544353,-0.035879,0.686155,0.507298,-0.045284,0.691216,0.475596,-0.053384,0.695719,0.627855,-0.032525,0.722143,0.594907,-0.041443,0.738443,0.56995,-0.046561,0.751203,0.545659,-0.050843,1,0,0
56,'2026/05/06 10:37:41:811',1,0.654397,0.772003,0,0.602607,0.74809,-0.023468,0.554007,0.716509,-0.03991,0.51236,0.695364,-0.056192,0.476452,0.689156,-0.073623,0.597796,0.61127,-0.021188,0.578752,0.548048,-0.035014,0.567948,0.507024,-0.048344,0.55982,0.472008,-0.059002,0.634008,0.596968,-0.02171,0.632472,0.526179,-0.030432,0.63062,0.482854,-0.039595,0.62984,0.448537,-0.048335,0.667852,0.604708,-0.025541,0.679615,0.544459,-0.036044,0.686777,0.507934,-0.046288,0.692523,0.4774,-0.054711,0.696092,0.62837,-0.032015,0.721602,0.594137,-0.041381,0.738027,0.570005,-0.046674,0.750854,0.547237,-0.051138,1,0,0
57,'2026/05/06 10:37:41:852',1,0.653883,0.775102,0,0.601815,0.749436,-0.023502,0.553168,0.716434,-0.039766,0.512682,0.694935,-0.055909,0.477417,0.688717,-0.073152,0.597856,0.610896,-0.020072,0.57891,0.547459,-0.033645,0.568032,0.506602,-0.047129,0.559832,0.471478,-0.058001,0.634449,0.596825,-0.020616,0.632878,0.526052,-0.028916,0.631065,0.483094,-0.037996,0.630171,0.449492,-0.046751,0.668425,0.604953,-0.024594,0.680066,0.544237,-0.034517,0.687506,0.507809,-0.044547,0.693565,0.477773,-0.052934,0.696768,0.629158,-0.031322,0.721928,0.594224,-0.040239,0.738088,0.570101,-0.045385,0.750739,0.547447,-0.049804,1,0,0
58,'2026/05/06 10:37:41:889',1,0.655017,0.773084,0,0.602552,0.748429,-0.022695,0.553657,0.715895,-0.038743,0.512107,0.694779,-0.054783,0.47669,0.689065,-0.072018,0.598032,0.610976,-0.020879,0.578647,0.547025,-0.035232,0.567798,0.50575,-0.048816,0.559817,0.470453,-0.059546,0.634049,0.596897,-0.021932,0.632448,0.526095,-0.030563,0.630655,0.483056,-0.039458,0.629764,0.449047,-0.047959,0.667933,0.604506,-0.026331,0.679965,0.544196,-0.036429,0.686439,0.506828,-0.046361,0.691459,0.47552,-0.054696,0.696313,0.628356,-0.033411,0.722652,0.594618,-0.042578,0.739131,0.569956,-0.047871,0.751948,0.546455,-0.052346,1,0,0
59,'2026/05/06 10:37:41:922',1,0.655069,0.774026,0,0.602874,0.749027,-0.023176,0.554016,0.716279,-0.03951,0.512811,0.695062,-0.055688,0.477324,0.689117,-0.073004,0.598345,0.611117,-0.02106,0.579041,0.547611,-0.035101,0.568074,0.506674,-0.048638,0.559981,0.471809,-0.059391,0.634703,0.597094,-0.021741,0.633111,0.525859,-0.030266,0.631393,0.482937,-0.039104,0.630839,0.449143,-0.047574,0.668661,0.604959,-0.025767,0.680369,0.544276,-0.035817,0.68761,0.507738,-0.045625,0.6936,0.47718,-0.053825,0.697007,0.628841,-0.032485,0.722281,0.59399,-0.041476,0.738567,0.569813,-0.046433,0.751492,0.547002,-0.05066,1,0,0
60,'2026/05/06 10:37:41:952',1,0.6555,0.772594,0,0.604042,0.748411,-0.023962,0.555042,0.716304,-0.040673,0.512337,0.695256,-0.057089,0.476417,0.689063,-0.074648,0.598335,0.610846,-0.022244,0.578876,0.546968,-0.036664,0.567819,0.505874,-0.050269,0.559611,0.470697,-0.061023,0.634635,0.596162,-0.022556,0.632614,0.525333,-0.031295,0.630577,0.482403,-0.040142,0.629675,0.44831,-0.048634,0.668666,0.603781,-0.026236,0.680376,0.543441,-0.036451,0.687111,0.506107,-0.046195,0.692685,0.474554,-0.054401,0.696925,0.627454,-0.032664,0.722305,0.593726,-0.041822,0.738675,0.569677,-0.046837,0.751901,0.546667,-0.051107,1,0,0
61,'2026/05/06 10:37:41:984',1,0.654409,0.773476,0,0.602754,0.749206,-0.023449,0.554214,0.717278,-0.040361,0.514242,0.695672,-0.057134,0.479078,0.688563,-0.075037,0.598738,0.610772,-0.021909,0.579081,0.547311,-0.036243,0.568229,0.506269,-0.050122,0.560467,0.471307,-0.06115,0.634754,0.596587,-0.022577,0.633194,0.525279,-0.031466,0.632003,0.482252,-0.040568,0.631814,0.448874,-0.04931,0.66849,0.604249,-0.026559,0.680503,0.543637,-0.036671,0.688123,0.506886,-0.046786,0.694093,0.476625,-0.055353,0.696979,0.628022,-0.033263,0.722704,0.593196,-0.042271,0.739083,0.569088,-0.047515,0.751846,0.54652,-0.052075,1,0,0
62,'2026/05/06 10:37:42:030',1,0.656462,0.773293,0,0.603134,0.74899,-0.022866,0.55352,0.716866,-0.038717,0.511181,0.695528,-0.054368,0.475462,0.688386,-0.071206,0.597927,0.610922,-0.020555,0.578726,0.546979,-0.033889,0.567836,0.505594,-0.04693,0.55961,0.470252,-0.0574,0.634451,0.59683,-0.021203,0.632706,0.526081,-0.029026,0.630719,0.482865,-0.037819,0.629913,0.448308,-0.046481,0.668613,0.604849,-0.025128,0.680323,0.544544,-0.034635,0.687181,0.507119,-0.044583,0.692779,0.475102,-0.053157,0.696967,0.628561,-0.031689,0.722579,0.593671,-0.040634,0.73895,0.569136,-0.045761,0.752028,0.545411,-0.050219,1,0,0
63,'2026/05/06 10:37:42:062',1,0.655137,0.772968,0,0.603538,0.748537,-0.023479,0.554563,0.717606,-0.040421,0.513518,0.696658,-0.057281,0.478146,0.689205,-0.075227,0.598366,0.61088,-0.020984,0.578925,0.54715,-0.034819,0.567957,0.506345,-0.048471,0.559839,0.471615,-0.059376,0.634847,0.596421,-0.021391,0.63331,0.525417,-0.029747,0.631672,0.482552,-0.038861,0.63055,0.44943,-0.047725,0.668846,0.604147,-0.025137,0.680754,0.542971,-0.034899,0.688331,0.506135,-0.044887,0.694042,0.475975,-0.053384,0.697211,0.627985,-0.03159,0.722905,0.593512,-0.040368,0.738781,0.569292,-0.045453,0.750644,0.546551,-0.049864,1,0,0
64,'2026/05/06 10:37:42:092',1,0.656314,0.775099,0,0.603217,0.749706,-0.022719,0.554226,0.717466,-0.038771,0.513652,0.696433,-0.054764,0.478399,0.69078,-0.071903,0.598591,0.610751,-0.019853,0.579035,0.547256,-0.033209,0.568118,0.506041,-0.046412,0.559988,0.471322,-0.057021,0.63479,0.596423,-0.020693,0.633178,0.525181,-0.028676,0.631844,0.48237,-0.037384,0.631666,0.449441,-0.045854,0.66875,0.604243,-0.024902,0.680872,0.543422,-0.034606,0.688357,0.506597,-0.044743,0.69448,0.476334,-0.053314,0.69724,0.628163,-0.031765,0.722913,0.593385,-0.040647,0.739145,0.569173,-0.045888,0.751979,0.54643,-0.050415,1,0,0
65,'2026/05/06 10:37:42:124',1,0.65538,0.77457,0,0.602221,0.750464,-0.023714,0.553086,0.717255,-0.039927,0.511781,0.695829,-0.055852,0.476293,0.690792,-0.072865,0.598346,0.610777,-0.021251,0.579356,0.547273,-0.035018,0.568589,0.506364,-0.048395,0.560364,0.471272,-0.05912,0.634818,0.596571,-0.02165,0.633307,0.525683,-0.030084,0.631352,0.482498,-0.038923,0.630331,0.447906,-0.047372,0.668753,0.604498,-0.025438,0.680774,0.543938,-0.035408,0.687834,0.5068,-0.045317,0.693444,0.475218,-0.053621,0.697173,0.628456,-0.031982,0.723023,0.594007,-0.041105,0.739463,0.569755,-0.04633,0.752456,0.54646,-0.050736,1,0,0
66,'2026/05/06 10:37:42:157',1,0.655655,0.772241,0,0.603173,0.748672,-0.023282,0.553951,0.718621,-0.039935,0.513301,0.697631,-0.056338,0.47844,0.690149,-0.073878,0.598653,0.611355,-0.021717,0.57902,0.547885,-0.035203,0.568268,0.506313,-0.048379,0.560525,0.471218,-0.058983,0.635066,0.596924,-0.022115,0.633458,0.525705,-0.030057,0.632595,0.482897,-0.038681,0.632996,0.45011,-0.04721,0.669045,0.604777,-0.025747,0.681029,0.544575,-0.035205,0.688843,0.507798,-0.045303,0.695254,0.477497,-0.054016,0.697552,0.628594,-0.032043,0.723137,0.594024,-0.040995,0.739395,0.570093,-0.046336,0.75223,0.547529,-0.05096,1,0,0
67,'2026/05/06 10:37:42:186',1,0.656331,0.771349,0,0.603336,0.747882,-0.023129,0.553972,0.71654,-0.039102,0.512684,0.696033,-0.054842,0.477203,0.690706,-0.071766,0.598427,0.610718,-0.020518,0.579293,0.547537,-0.033663,0.568667,0.506375,-0.046533,0.560722,0.471292,-0.056947,0.63503,0.596505,-0.020975,0.633604,0.526001,-0.028716,0.632161,0.483148,-0.03731,0.631817,0.449577,-0.045833,0.66918,0.6045,-0.024763,0.681174,0.544641,-0.034573,0.688386,0.507217,-0.044853,0.694253,0.475895,-0.053556,0.697764,0.628239,-0.031179,0.723579,0.593554,-0.040474,0.740036,0.569281,-0.045945,0.753103,0.545947,-0.050648,1,0,0
68,'2026/05/06 10:37:42:219',1,0.653719,0.77421,0,0.603545,0.748072,-0.023148,0.555413,0.717015,-0.040298,0.514594,0.695991,-0.057448,0.478823,0.688383,-0.0757,0.59835,0.610741,-0.020877,0.578305,0.546664,-0.034936,0.567592,0.505646,-0.048704,0.560293,0.470785,-0.059619,0.634986,0.596582,-0.021732,0.633089,0.525917,-0.030125,0.632459,0.482216,-0.039068,0.632434,0.448839,-0.047825,0.668944,0.604681,-0.025941,0.680621,0.544032,-0.036014,0.688605,0.507391,-0.045916,0.694626,0.477686,-0.054212,0.697406,0.628658,-0.032827,0.722918,0.59358,-0.042089,0.73899,0.568778,-0.047195,0.751041,0.54542,-0.051514,1,0,0
69,'2026/05/06 10:37:42:249',1,0.655537,0.773594,0,0.603344,0.749191,-0.023308,0.55422,0.717257,-0.039769,0.51309,0.696952,-0.056092,0.477452,0.69127,-0.073566,0.59872,0.610677,-0.020891,0.57937,0.547156,-0.034616,0.568568,0.506383,-0.047963,0.560646,0.471488,-0.058605,0.635213,0.596743,-0.021544,0.633774,0.525556,-0.029757,0.631999,0.482505,-0.038534,0.631221,0.448753,-0.047011,0.669217,0.605043,-0.025541,0.681317,0.544441,-0.035442,0.688439,0.507857,-0.045264,0.694155,0.477168,-0.053489,0.697502,0.629287,-0.03223,0.723118,0.594529,-0.041211,0.739521,0.570439,-0.04615,0.752476,0.547432,-0.050356,1,0,0
70,'2026/05/06 10:37:42:279',1,0.655024,0.771829,0,0.602531,0.747817,-0.022867,0.553746,0.716799,-0.039114,0.51361,0.696245,-0.055292,0.478522,0.690126,-0.072711,0.59891,0.611416,-0.02088,0.5793,0.54813,-0.034344,0.56849,0.506874,-0.047504,0.560496,0.471687,-0.058055,0.635113,0.597453,-0.021496,0.633927,0.526825,-0.029666,0.632445,0.483427,-0.038556,0.631887,0.449461,-0.047214,0.668816,0.605397,-0.025344,0.681413,0.544591,-0.03518,0.689053,0.507468,-0.045359,0.69509,0.476777,-0.053934,0.696904,0.629218,-0.03181,0.723144,0.59456,-0.040845,0.739657,0.570134,-0.046128,0.752483,0.547019,-0.050662,1,0,0
71,'2026/05/06 10:37:42:310',1,0.655625,0.774494,0,0.603167,0.749669,-0.022394,0.554612,0.717243,-0.038171,0.514099,0.696171,-0.053984,0.478694,0.690408,-0.07095,0.598447,0.611024,-0.019557,0.5792,0.547366,-0.032803,0.568365,0.506416,-0.045823,0.560423,0.471691,-0.056266,0.634921,0.597074,-0.020459,0.633655,0.526478,-0.028328,0.632677,0.48378,-0.036839,0.632639,0.450845,-0.045125,0.669005,0.605142,-0.024712,0.681174,0.545178,-0.034355,0.688828,0.508754,-0.044243,0.695034,0.478495,-0.052554,0.697514,0.629014,-0.031594,0.723108,0.594417,-0.040567,0.7393,0.570316,-0.04575,0.752145,0.547374,-0.050143,1,0,0
72,'2026/05/06 10:37:42:348',1,0.654796,0.773993,0,0.603246,0.748613,-0.022873,0.55487,0.716799,-0.039147,0.514903,0.695338,-0.055334,0.480109,0.68776,-0.07266,0.598895,0.611379,-0.020435,0.57954,0.547822,-0.034238,0.568739,0.506735,-0.047759,0.560841,0.47169,-0.058528,0.635247,0.597327,-0.021252,0.63421,0.526825,-0.029592,0.632743,0.484068,-0.038631,0.632194,0.450577,-0.04731,0.669112,0.60519,-0.025385,0.681191,0.544896,-0.035206,0.688782,0.507622,-0.045307,0.694999,0.476579,-0.05384,0.697235,0.628768,-0.032167,0.722714,0.594184,-0.041039,0.739185,0.570014,-0.046128,0.752234,0.547152,-0.050531,1,0,0
73,'2026/05/06 10:37:42:373',1,0.654865,0.773694,0,0.60284,0.748878,-0.022602,0.554234,0.716869,-0.038614,0.513946,0.695613,-0.054657,0.478817,0.688597,-0.071852,0.598853,0.610666,-0.019488,0.579216,0.547541,-0.032651,0.568485,0.50672,-0.045832,0.560739,0.47206,-0.056434,0.635297,0.596641,-0.020212,0.634239,0.525629,-0.028049,0.632797,0.482458,-0.036867,0.632042,0.449197,-0.045483,0.669369,0.604491,-0.024254,0.681446,0.543895,-0.033633,0.689156,0.507313,-0.043697,0.695072,0.477486,-0.052227,0.697976,0.628226,-0.030957,0.723653,0.593339,-0.039517,0.739792,0.569027,-0.044633,0.752025,0.546323,-0.049087,1,0,0
74,'2026/05/06 10:37:42:404',1,0.655745,0.775293,0,0.602456,0.75038,-0.022157,0.553771,0.71741,-0.03731,0.513283,0.695655,-0.052487,0.477943,0.689752,-0.06882,0.599101,0.610932,-0.018259,0.579564,0.54715,-0.030834,0.569015,0.50555,-0.043527,0.561405,0.470154,-0.053854,0.63553,0.59701,-0.019126,0.634092,0.526145,-0.026315,0.632898,0.483239,-0.034684,0.632752,0.449967,-0.042953,0.669459,0.604991,-0.023359,0.681576,0.545043,-0.032401,0.689124,0.507764,-0.042376,0.695323,0.476684,-0.050926,0.697613,0.628774,-0.030233,0.723065,0.594819,-0.038895,0.739262,0.570969,-0.044171,0.752086,0.548324,-0.048721,1,0,0
75,'2026/05/06 10:37:42:435',1,0.655984,0.774048,0,0.604144,0.748628,-0.02306,0.555507,0.716949,-0.039551,0.514902,0.695406,-0.056005,0.479564,0.687846,-0.073568,0.599374,0.611367,-0.020362,0.579628,0.547757,-0.0341,0.568797,0.506466,-0.04769,0.56105,0.471537,-0.058527,0.635594,0.597073,-0.020958,0.634225,0.526397,-0.028996,0.6329,0.483329,-0.037859,0.63239,0.45007,-0.046536,0.669577,0.604813,-0.024887,0.681585,0.543863,-0.034171,0.68938,0.506851,-0.043884,0.695409,0.476739,-0.052263,0.697991,0.628774,-0.031557,0.723382,0.593915,-0.039898,0.739274,0.569804,-0.044647,0.751413,0.547459,-0.048866,1,0,0
76,'2026/05/06 10:37:42:466',1,0.654814,0.773145,0,0.604107,0.747991,-0.023209,0.555237,0.716701,-0.040161,0.513461,0.694256,-0.057019,0.477602,0.686363,-0.074987,0.598627,0.611961,-0.021445,0.578978,0.547725,-0.035268,0.569171,0.505847,-0.048779,0.562725,0.47064,-0.059597,0.635284,0.59703,-0.021954,0.633521,0.525765,-0.030014,0.633481,0.482115,-0.038539,0.633969,0.448899,-0.04706,0.669519,0.604573,-0.025736,0.681489,0.54381,-0.035305,0.689752,0.507168,-0.04488,0.695739,0.477721,-0.053103,0.698152,0.62846,-0.032237,0.723858,0.594164,-0.041167,0.739637,0.569241,-0.04618,0.751008,0.546099,-0.050506,1,0,0
77,'2026/05/06 10:37:42:497',1,0.655705,0.774732,0,0.603819,0.749984,-0.022908,0.555403,0.717856,-0.039187,0.515203,0.695947,-0.055402,0.479781,0.68876,-0.072636,0.599369,0.610935,-0.019953,0.579909,0.547309,-0.033261,0.569246,0.506343,-0.046459,0.561481,0.471496,-0.057083,0.635909,0.59658,-0.020599,0.634686,0.525375,-0.028326,0.633678,0.482386,-0.036749,0.633388,0.449594,-0.045114,0.669889,0.604672,-0.024588,0.681669,0.543594,-0.033735,0.689477,0.507347,-0.04306,0.695563,0.477907,-0.05116,0.698419,0.629035,-0.031308,0.723621,0.594237,-0.039751,0.73946,0.569936,-0.044515,0.751617,0.547215,-0.048701,1,0,0
78,'2026/05/06 10:37:42:529',1,0.655022,0.773893,0,0.60417,0.748564,-0.022972,0.55562,0.717137,-0.039824,0.515019,0.695328,-0.056627,0.479694,0.687206,-0.074526,0.598941,0.611203,-0.02079,0.579134,0.547039,-0.034559,0.568777,0.506004,-0.048143,0.561909,0.471457,-0.059,0.635405,0.59667,-0.021545,0.633476,0.525648,-0.029533,0.63302,0.482031,-0.038224,0.633283,0.449165,-0.046921,0.669323,0.604618,-0.025626,0.681398,0.543279,-0.035318,0.689386,0.506099,-0.045154,0.695329,0.476414,-0.053606,0.6978,0.628901,-0.032377,0.723491,0.594303,-0.041648,0.739355,0.569378,-0.046944,0.751144,0.546097,-0.051459,1,0,0
79,'2026/05/06 10:37:42:576',1,0.654846,0.773377,0,0.604367,0.748562,-0.022981,0.556282,0.717511,-0.039615,0.515906,0.696021,-0.056258,0.480526,0.688173,-0.073987,0.598966,0.610991,-0.020193,0.578916,0.547138,-0.033799,0.568306,0.505819,-0.047156,0.560971,0.471089,-0.057728,0.635702,0.596633,-0.020814,0.633938,0.525687,-0.028413,0.633234,0.482239,-0.036722,0.63307,0.449389,-0.045019,0.669935,0.604598,-0.024803,0.681797,0.543833,-0.034077,0.689563,0.506859,-0.043433,0.695248,0.47719,-0.051423,0.698524,0.628622,-0.031502,0.723794,0.594006,-0.040176,0.739385,0.569426,-0.04491,0.750769,0.546588,-0.048952,1,0,0
80,'2026/05/06 10:37:42:607',1,0.655891,0.774299,0,0.6048,0.748958,-0.023585,0.556189,0.717837,-0.040514,0.515482,0.695959,-0.057301,0.480229,0.687604,-0.075088,0.599359,0.611108,-0.021077,0.579824,0.547632,-0.035127,0.568966,0.506602,-0.048848,0.56119,0.47134,-0.059752,0.635827,0.596316,-0.021462,0.63442,0.525819,-0.029935,0.633379,0.482539,-0.038716,0.632903,0.449179,-0.047209,0.66956,0.604328,-0.025232,0.681754,0.544208,-0.035295,0.689657,0.507811,-0.044867,0.695532,0.47792,-0.052834,0.697697,0.628646,-0.031728,0.723601,0.594416,-0.040886,0.739459,0.570021,-0.045828,0.751288,0.546879,-0.049916,1,0,0
81,'2026/05/06 10:37:42:639',1,0.65568,0.774611,0,0.604156,0.749437,-0.023242,0.555872,0.717596,-0.039831,0.515366,0.695626,-0.056396,0.480165,0.688128,-0.073962,0.59935,0.611079,-0.02023,0.579924,0.546977,-0.033928,0.569142,0.505853,-0.04745,0.561339,0.470999,-0.05823,0.635737,0.596953,-0.020685,0.634205,0.526007,-0.02865,0.632906,0.483043,-0.037277,0.632208,0.450033,-0.04572,0.669872,0.604776,-0.024544,0.681801,0.54373,-0.033623,0.689453,0.507147,-0.043017,0.695234,0.477509,-0.051129,0.698599,0.628728,-0.03121,0.724086,0.59438,-0.039337,0.739706,0.570179,-0.044049,0.751509,0.547682,-0.048189,1,0,0
82,'2026/05/06 10:37:42:671',1,0.656041,0.774008,0,0.603704,0.749058,-0.022981,0.554901,0.717013,-0.039272,0.514812,0.695713,-0.055561,0.47944,0.689301,-0.07293,0.599447,0.610053,-0.019836,0.580037,0.546618,-0.033053,0.569255,0.505952,-0.046192,0.561364,0.471244,-0.056817,0.635817,0.596067,-0.020454,0.634309,0.525732,-0.02834,0.633104,0.482976,-0.036965,0.632719,0.450207,-0.045488,0.669658,0.604273,-0.024464,0.681751,0.543677,-0.033978,0.689585,0.507143,-0.043757,0.695628,0.477634,-0.052101,0.697933,0.628642,-0.031193,0.723546,0.594158,-0.040029,0.739422,0.569435,-0.045241,0.75164,0.546224,-0.049737,1,0,0
83,'2026/05/06 10:37:42:704',1,0.656457,0.774009,0,0.603984,0.749151,-0.022556,0.554943,0.716754,-0.038618,0.513423,0.695955,-0.054578,0.477875,0.690215,-0.071749,0.598886,0.610323,-0.020685,0.580139,0.546238,-0.034509,0.569445,0.50516,-0.047973,0.561338,0.470316,-0.058758,0.635382,0.596613,-0.021678,0.63401,0.525954,-0.029784,0.632353,0.483151,-0.038786,0.63164,0.448985,-0.047654,0.669426,0.604754,-0.025949,0.681636,0.544391,-0.035539,0.689013,0.506841,-0.045817,0.694791,0.474917,-0.054764,0.697822,0.628888,-0.032847,0.72375,0.594816,-0.041983,0.740211,0.570395,-0.047471,0.753166,0.54685,-0.052272,1,0,0
84,'2026/05/06 10:37:42:734',1,0.656484,0.77368,0,0.603446,0.748652,-0.022644,0.554425,0.716414,-0.038256,0.513018,0.695158,-0.053822,0.477259,0.689133,-0.070551,0.599065,0.610446,-0.019191,0.58001,0.546394,-0.03212,0.56943,0.505002,-0.045007,0.561648,0.469563,-0.055401,0.635723,0.596485,-0.01975,0.634377,0.525955,-0.027122,0.632939,0.482817,-0.035596,0.632525,0.449039,-0.043973,0.669868,0.60482,-0.023665,0.682001,0.544313,-0.03281,0.689738,0.507223,-0.042554,0.695981,0.476427,-0.050846,0.698252,0.629108,-0.030236,0.723805,0.594079,-0.038746,0.739621,0.569402,-0.043669,0.751823,0.546033,-0.047923,1,0,0
85,'2026/05/06 10:37:42:767',1,0.655937,0.773183,0,0.603542,0.748385,-0.023374,0.554563,0.71608,-0.039992,0.513359,0.694718,-0.05644,0.477958,0.688556,-0.074021,0.599298,0.610645,-0.021747,0.580257,0.546762,-0.035724,0.569538,0.505543,-0.049106,0.561577,0.470314,-0.059876,0.635398,0.59635,-0.02234,0.633807,0.525427,-0.031062,0.632046,0.483059,-0.039926,0.631229,0.449843,-0.048504,0.669138,0.604161,-0.026219,0.681417,0.543311,-0.036354,0.689168,0.506214,-0.046074,0.695415,0.475263,-0.054366,0.697283,0.628273,-0.032792,0.722833,0.593807,-0.041924,0.738723,0.569331,-0.04696,0.750952,0.546129,-0.051343,1,0,0
86,'2026/05/06 10:37:42:799',1,0.655815,0.773826,0,0.604011,0.748693,-0.023525,0.555211,0.716531,-0.040227,0.514693,0.694792,-0.056846,0.479335,0.68808,-0.074434,0.598725,0.609907,-0.02055,0.57949,0.546013,-0.034124,0.568816,0.505333,-0.047419,0.560952,0.47077,-0.058059,0.635333,0.595653,-0.020921,0.633706,0.525089,-0.028988,0.632585,0.48287,-0.037549,0.631993,0.450287,-0.045944,0.669534,0.603396,-0.024726,0.68126,0.542642,-0.034346,0.689089,0.505734,-0.043925,0.695058,0.475702,-0.052046,0.69824,0.627247,-0.0313,0.724007,0.592839,-0.039963,0.739943,0.568569,-0.044923,0.751865,0.545882,-0.049185,1,0,0
87,'2026/05/06 10:37:42:831',1,0.655751,0.773095,0,0.603404,0.748052,-0.023209,0.554464,0.71591,-0.039713,0.513848,0.694481,-0.056099,0.478463,0.687803,-0.073582,0.598606,0.610245,-0.021088,0.57952,0.546047,-0.034577,0.569003,0.504547,-0.047648,0.56127,0.469215,-0.05825,0.635074,0.596101,-0.021745,0.633649,0.525333,-0.03015,0.632494,0.482892,-0.039111,0.632224,0.450105,-0.047837,0.669127,0.604071,-0.02568,0.681165,0.543255,-0.035621,0.689096,0.506057,-0.045668,0.695446,0.475364,-0.054242,0.697573,0.628146,-0.032273,0.723191,0.593271,-0.041349,0.73923,0.569006,-0.046573,0.751534,0.546179,-0.051119,1,0,0
88,'2026/05/06 10:37:42:864',1,0.655307,0.77487,0,0.604746,0.747943,-0.023591,0.555673,0.71548,-0.040855,0.513802,0.693383,-0.058015,0.478118,0.684959,-0.07624,0.59871,0.610127,-0.021328,0.578686,0.54565,-0.03547,0.568277,0.50406,-0.049238,0.561276,0.469209,-0.060096,0.635219,0.595591,-0.021775,0.633571,0.524157,-0.029772,0.633492,0.480642,-0.03818,0.633869,0.447915,-0.046567,0.669251,0.603439,-0.02563,0.681128,0.541942,-0.035081,0.689176,0.504754,-0.044345,0.69511,0.474981,-0.052321,0.697855,0.627383,-0.032274,0.723323,0.592353,-0.041046,0.73921,0.567484,-0.045723,0.751016,0.544451,-0.049729,1,0,0
89,'2026/05/06 10:37:42:902',1,0.655932,0.773243,0,0.603131,0.748106,-0.022696,0.554117,0.716069,-0.038734,0.513175,0.694517,-0.054745,0.477741,0.687846,-0.071896,0.599088,0.609568,-0.019633,0.580031,0.545837,-0.032962,0.569325,0.504548,-0.04626,0.561346,0.46947,-0.056978,0.635398,0.595429,-0.020409,0.6339,0.524638,-0.028242,0.632532,0.481798,-0.036971,0.632282,0.448689,-0.045568,0.669367,0.603574,-0.024557,0.681173,0.542576,-0.033963,0.688926,0.505722,-0.043824,0.695312,0.475526,-0.052323,0.697756,0.627749,-0.03139,0.723054,0.592717,-0.040114,0.738951,0.56838,-0.04522,0.751504,0.545587,-0.049696,1,0,0
90,'2026/05/06 10:37:42:933',1,0.654707,0.772045,0,0.603461,0.747254,-0.024036,0.555244,0.714868,-0.041029,0.514114,0.693302,-0.057861,0.478937,0.686906,-0.07578,0.598672,0.610115,-0.022126,0.58009,0.546302,-0.036836,0.569351,0.505737,-0.05077,0.561199,0.470757,-0.06172,0.635161,0.595937,-0.022588,0.634231,0.524964,-0.031824,0.632212,0.482459,-0.040911,0.630461,0.448741,-0.049356,0.669091,0.603531,-0.026441,0.68172,0.542441,-0.036963,0.688927,0.505212,-0.046428,0.694419,0.473925,-0.054167,0.697127,0.626958,-0.033077,0.722964,0.5923,-0.042174,0.739188,0.568163,-0.046763,0.751584,0.545307,-0.050557,1,0,0
91,'2026/05/06 10:37:42:975',1,0.65362,0.771375,0,0.602612,0.746531,-0.022819,0.554118,0.715828,-0.039517,0.513839,0.694492,-0.056166,0.478539,0.685878,-0.073981,0.597977,0.609405,-0.020793,0.57848,0.545691,-0.034653,0.567852,0.50438,-0.048298,0.560245,0.469001,-0.059204,0.634711,0.595173,-0.021657,0.633325,0.523966,-0.030232,0.632136,0.480469,-0.039477,0.631503,0.446735,-0.048425,0.668522,0.603272,-0.025752,0.681057,0.542602,-0.035857,0.689265,0.505569,-0.045953,0.695427,0.474862,-0.054471,0.696531,0.627326,-0.032431,0.722484,0.592316,-0.041645,0.738582,0.567199,-0.046782,0.750587,0.543121,-0.051198,1,0,0
92,'2026/05/06 10:37:43:012',1,0.654392,0.770248,0,0.601784,0.745644,-0.023118,0.552583,0.714292,-0.039335,0.512292,0.693324,-0.055435,0.477343,0.686182,-0.072692,0.598074,0.609052,-0.020039,0.578639,0.546015,-0.033238,0.56799,0.505035,-0.046435,0.560103,0.469984,-0.057049,0.634731,0.594718,-0.020446,0.633544,0.523714,-0.02819,0.63201,0.481008,-0.036947,0.631288,0.447978,-0.045515,0.66868,0.602798,-0.024154,0.680858,0.542509,-0.033425,0.688394,0.505402,-0.043172,0.694404,0.474802,-0.051501,0.696805,0.626734,-0.03055,0.722316,0.59199,-0.038939,0.738156,0.567493,-0.043638,0.750409,0.544234,-0.047781,1,0,0
93,'2026/05/06 10:37:43:043',1,0.653952,0.771695,0,0.602028,0.74686,-0.023109,0.553539,0.715177,-0.039627,0.513053,0.693796,-0.056095,0.478203,0.686491,-0.073671,0.597798,0.608965,-0.020388,0.578563,0.54555,-0.034393,0.567577,0.505063,-0.048206,0.559529,0.470209,-0.059229,0.634041,0.594802,-0.021124,0.632697,0.524087,-0.029397,0.631054,0.481896,-0.038328,0.630156,0.448858,-0.047007,0.667698,0.602811,-0.025235,0.680184,0.541696,-0.034846,0.687779,0.504256,-0.044561,0.693755,0.473021,-0.052939,0.695645,0.626778,-0.032078,0.721442,0.592389,-0.040931,0.737605,0.568132,-0.045899,0.750293,0.545066,-0.050211,1,0,0
94,'2026/05/06 10:37:43:074',1,0.654145,0.770354,0,0.601942,0.746237,-0.024308,0.552934,0.71454,-0.041605,0.511454,0.693741,-0.058576,0.476092,0.687636,-0.076674,0.597389,0.608804,-0.023166,0.578415,0.545482,-0.037885,0.567678,0.504708,-0.051808,0.559686,0.469695,-0.062895,0.633644,0.594317,-0.02353,0.632068,0.52392,-0.032596,0.629968,0.481859,-0.041671,0.628865,0.448372,-0.050403,0.667504,0.602265,-0.027219,0.679785,0.541028,-0.037643,0.686931,0.503881,-0.047251,0.692735,0.472631,-0.055457,0.695517,0.626591,-0.033693,0.721053,0.59234,-0.043128,0.737164,0.568072,-0.048122,0.749961,0.544809,-0.052404,1,0,0
95,'2026/05/06 10:37:43:103',1,0.653426,0.769646,0,0.601413,0.745538,-0.023185,0.552529,0.714002,-0.039647,0.512306,0.693111,-0.055879,0.477556,0.686612,-0.073366,0.59713,0.609325,-0.022062,0.578128,0.545659,-0.036012,0.567368,0.504584,-0.049446,0.559354,0.469287,-0.060249,0.633354,0.595147,-0.022635,0.632277,0.524669,-0.031237,0.630322,0.482037,-0.040416,0.629439,0.448107,-0.04933,0.66707,0.602799,-0.026389,0.679487,0.542241,-0.036365,0.686837,0.50479,-0.046677,0.692947,0.473309,-0.055514,0.695161,0.626194,-0.032766,0.720755,0.591259,-0.041927,0.736921,0.567073,-0.047278,0.749703,0.544062,-0.051981,1,0,0
96,'2026/05/06 10:37:43:137',1,0.653639,0.771179,0,0.601459,0.746431,-0.023238,0.552729,0.714325,-0.039551,0.512048,0.692756,-0.055764,0.477162,0.685928,-0.073007,0.596941,0.608095,-0.020348,0.577671,0.544255,-0.034014,0.567104,0.503579,-0.047377,0.559491,0.468666,-0.058068,0.63351,0.593829,-0.020847,0.631869,0.52312,-0.02887,0.629846,0.480713,-0.037503,0.628808,0.447141,-0.045857,0.667613,0.601708,-0.024716,0.679502,0.541027,-0.033981,0.686611,0.50396,-0.043309,0.69243,0.472918,-0.051345,0.696062,0.625616,-0.031353,0.721184,0.591413,-0.039655,0.736824,0.567378,-0.044211,0.749119,0.544475,-0.048202,1,0,0
97,'2026/05/06 10:37:43:170',1,0.653893,0.769467,0,0.601499,0.745065,-0.023457,0.552473,0.713544,-0.039811,0.510622,0.69301,-0.05602,0.475363,0.686846,-0.073354,0.597025,0.608168,-0.021009,0.577741,0.544143,-0.034767,0.567017,0.503502,-0.048065,0.55925,0.468635,-0.058657,0.633264,0.593783,-0.021321,0.631961,0.523076,-0.029219,0.629683,0.480485,-0.037735,0.628284,0.446823,-0.046064,0.66712,0.601664,-0.024988,0.679559,0.540767,-0.034075,0.686363,0.503254,-0.043327,0.691802,0.471915,-0.051383,0.695076,0.62568,-0.031448,0.720603,0.592166,-0.039754,0.736385,0.567526,-0.044392,0.748908,0.544104,-0.048457,1,0,0
98,'2026/05/06 10:37:43:200',1,0.654438,0.769841,0,0.601808,0.745833,-0.023727,0.552578,0.712824,-0.039988,0.510155,0.691027,-0.055981,0.474566,0.684895,-0.073033,0.597263,0.608357,-0.021544,0.577985,0.544238,-0.035747,0.567304,0.503073,-0.049341,0.559461,0.468132,-0.060039,0.633541,0.593727,-0.0217,0.631959,0.523949,-0.029674,0.630254,0.481178,-0.03817,0.629435,0.447014,-0.046468,0.66754,0.601046,-0.025247,0.679471,0.540963,-0.034305,0.685893,0.504571,-0.04322,0.691038,0.473739,-0.051001,0.695857,0.624609,-0.031655,0.721431,0.590742,-0.039847,0.737188,0.566315,-0.044279,0.749605,0.543083,-0.048129,1,0,0
99,'2026/05/06 10:37:43:231',1,0.653783,0.768552,0,0.601615,0.744428,-0.024298,0.552682,0.712889,-0.041367,0.511477,0.692145,-0.058168,0.476504,0.686263,-0.076025,0.597189,0.60778,-0.022227,0.57814,0.544305,-0.037004,0.567328,0.503651,-0.051046,0.559324,0.46874,-0.062027,0.633724,0.593449,-0.022531,0.632361,0.523046,-0.031366,0.630156,0.480132,-0.04035,0.629032,0.445833,-0.048825,0.667619,0.601205,-0.026267,0.679556,0.540947,-0.036067,0.686233,0.503816,-0.045325,0.691871,0.472506,-0.053159,0.695545,0.624959,-0.032884,0.720326,0.590966,-0.041361,0.736103,0.566876,-0.045768,0.748942,0.544,-0.049568,1,0,0
100,'2026/05/06 10:37:43:270',1,0.653684,0.769468,0,0.602083,0.744867,-0.024481,0.553483,0.712872,-0.041688,0.511747,0.692201,-0.058551,0.476153,0.686503,-0.076489,0.59649,0.607055,-0.023071,0.577924,0.542927,-0.037951,0.567179,0.502099,-0.051867,0.559009,0.466951,-0.062823,0.632803,0.593134,-0.023386,0.631872,0.522643,-0.032683,0.629459,0.480204,-0.041882,0.627983,0.446003,-0.050553,0.666539,0.601095,-0.027075,0.678949,0.540501,-0.037556,0.685922,0.50307,-0.047267,0.691591,0.471134,-0.055422,0.694351,0.625074,-0.033574,0.719769,0.591224,-0.042748,0.735863,0.566791,-0.04762,0.748629,0.543233,-0.051801,1,0,0
101,'2026/05/06 10:37:43:308',1,0.654041,0.768196,0,0.602045,0.744107,-0.023759,0.553037,0.712643,-0.040652,0.511186,0.691778,-0.057318,0.475901,0.684423,-0.075078,0.597183,0.607293,-0.022229,0.578492,0.543671,-0.036366,0.567804,0.503384,-0.049897,0.559818,0.468443,-0.060687,0.633466,0.593038,-0.022501,0.632187,0.523256,-0.030933,0.630112,0.481391,-0.039737,0.628757,0.447877,-0.04832,0.667188,0.600885,-0.026067,0.679356,0.540318,-0.03585,0.686686,0.503167,-0.045286,0.692463,0.471736,-0.053392,0.694932,0.624766,-0.032367,0.720359,0.5907,-0.041181,0.736036,0.566487,-0.045934,0.748148,0.543205,-0.050067,1,0,0
102,'2026/05/06 10:37:43:337',1,0.653576,0.768735,0,0.601762,0.744021,-0.023996,0.552978,0.712528,-0.041069,0.511284,0.691802,-0.05792,0.475852,0.685638,-0.075897,0.597059,0.607641,-0.022433,0.577749,0.543733,-0.036975,0.567203,0.502759,-0.050835,0.559498,0.467521,-0.061853,0.633189,0.59339,-0.022861,0.632014,0.522409,-0.031747,0.630103,0.480368,-0.040734,0.628851,0.447131,-0.04934,0.666911,0.601156,-0.02663,0.679165,0.539591,-0.036592,0.68634,0.502043,-0.045995,0.692002,0.470665,-0.054066,0.694705,0.625102,-0.033211,0.720075,0.590781,-0.041964,0.735924,0.566367,-0.04661,0.748277,0.543253,-0.050702,1,0,0
103,'2026/05/06 10:37:43:375',1,0.653273,0.767698,0,0.601144,0.743473,-0.023674,0.55252,0.712198,-0.040398,0.511894,0.691557,-0.05695,0.476896,0.685546,-0.074727,0.597062,0.607538,-0.021686,0.578059,0.544048,-0.036006,0.567258,0.503413,-0.049917,0.559174,0.468241,-0.06096,0.6334,0.593598,-0.022198,0.632112,0.522788,-0.030828,0.629781,0.480145,-0.040172,0.628301,0.445551,-0.049096,0.667124,0.601426,-0.025998,0.679518,0.54041,-0.035792,0.686638,0.503121,-0.045674,0.692316,0.471379,-0.054107,0.694995,0.625158,-0.032544,0.720103,0.590914,-0.041175,0.735841,0.566882,-0.045865,0.748185,0.543818,-0.050009,1,0,0
104,'2026/05/06 10:37:43:407',1,0.653258,0.768952,0,0.601692,0.744545,-0.024134,0.553297,0.712885,-0.041204,0.512723,0.69155,-0.058069,0.47811,0.684324,-0.075935,0.597036,0.607238,-0.021811,0.578255,0.543472,-0.036583,0.567443,0.503176,-0.050786,0.559471,0.468426,-0.061887,0.6334,0.592956,-0.022075,0.632313,0.522504,-0.030792,0.630242,0.48027,-0.03974,0.628755,0.446587,-0.048248,0.667231,0.600602,-0.025775,0.679703,0.539803,-0.035461,0.686903,0.50264,-0.044579,0.692577,0.471481,-0.052336,0.695108,0.624249,-0.032341,0.720259,0.589965,-0.040687,0.735843,0.565927,-0.044901,0.747989,0.543222,-0.04857,1,0,0
105,'2026/05/06 10:37:43:439',1,0.654462,0.766638,0,0.602172,0.743568,-0.024023,0.552989,0.712505,-0.040697,0.51007,0.692069,-0.057012,0.474302,0.686163,-0.074458,0.596651,0.607716,-0.022338,0.57782,0.543619,-0.036387,0.567265,0.502539,-0.049733,0.559578,0.467487,-0.060298,0.632861,0.593383,-0.022372,0.63104,0.52306,-0.03061,0.629155,0.48,-0.039344,0.628481,0.445585,-0.047894,0.666731,0.600937,-0.025716,0.678791,0.540682,-0.03521,0.68593,0.503184,-0.044709,0.691779,0.471507,-0.052939,0.694733,0.624176,-0.031831,0.72,0.590257,-0.040526,0.735968,0.565984,-0.04532,0.748798,0.542894,-0.049493,1,0,0
106,'2026/05/06 10:37:43:479',1,0.653464,0.766522,0,0.601426,0.743713,-0.023701,0.552273,0.712654,-0.040403,0.511638,0.691909,-0.056837,0.47664,0.686235,-0.074488,0.596291,0.607185,-0.022484,0.577472,0.543461,-0.036694,0.566925,0.502529,-0.050281,0.559093,0.467382,-0.061072,0.632787,0.592851,-0.022815,0.631721,0.522533,-0.031364,0.630037,0.479747,-0.040392,0.629255,0.445644,-0.049158,0.666595,0.600441,-0.026388,0.679181,0.540325,-0.036217,0.68643,0.502802,-0.046192,0.692199,0.471313,-0.05474,0.694573,0.623908,-0.032673,0.720172,0.589776,-0.041581,0.736171,0.565612,-0.04667,0.748745,0.542629,-0.051113,1,0,0
107,'2026/05/06 10:37:43:519',1,0.653321,0.769355,0,0.601441,0.74455,-0.023531,0.552589,0.712706,-0.040238,0.51082,0.692315,-0.056781,0.475508,0.686479,-0.074489,0.596118,0.607121,-0.021626,0.577414,0.543389,-0.036038,0.566902,0.502733,-0.049863,0.559003,0.467657,-0.060845,0.632609,0.592952,-0.022345,0.631676,0.522159,-0.030909,0.629673,0.480366,-0.03978,0.628453,0.446921,-0.048343,0.666462,0.60088,-0.026428,0.678563,0.540181,-0.036333,0.685653,0.503114,-0.045745,0.691468,0.471494,-0.0538,0.694314,0.624801,-0.033273,0.719335,0.590159,-0.042087,0.735235,0.566022,-0.046621,0.747842,0.54287,-0.050606,1,0,0
108,'2026/05/06 10:37:43:556',1,0.653674,0.76629,0,0.601657,0.743349,-0.023212,0.552709,0.711967,-0.039306,0.510551,0.692276,-0.055304,0.474843,0.687721,-0.072497,0.596539,0.607078,-0.020537,0.577449,0.543619,-0.034134,0.566858,0.503223,-0.047447,0.559209,0.468651,-0.058023,0.632522,0.592441,-0.020928,0.631204,0.522332,-0.028477,0.629385,0.479872,-0.036879,0.628507,0.44646,-0.045167,0.666191,0.599929,-0.02466,0.678588,0.539223,-0.033628,0.685518,0.502081,-0.042723,0.69113,0.471089,-0.050621,0.694048,0.62354,-0.03117,0.719458,0.590062,-0.03939,0.735405,0.565664,-0.043813,0.748198,0.542613,-0.04769,1,0,0
109,'2026/05/06 10:37:43:588',1,0.6535,0.767517,0,0.601867,0.743259,-0.024576,0.552851,0.712189,-0.042028,0.510997,0.692396,-0.059176,0.475765,0.687053,-0.0774,0.596083,0.606365,-0.022877,0.577483,0.542848,-0.037783,0.566853,0.502643,-0.051886,0.558834,0.467992,-0.062991,0.632567,0.591887,-0.023033,0.631498,0.52179,-0.032211,0.6295,0.479892,-0.041315,0.628129,0.446704,-0.049934,0.666477,0.5996,-0.02663,0.678713,0.538787,-0.03708,0.685953,0.501548,-0.046706,0.691752,0.47035,-0.054762,0.694441,0.623541,-0.033056,0.71988,0.589762,-0.042274,0.735766,0.565505,-0.047172,0.748194,0.542342,-0.051312,1,0,0
110,'2026/05/06 10:37:43:619',1,0.654997,0.768282,0,0.602289,0.744878,-0.023147,0.553041,0.712951,-0.03911,0.51035,0.69249,-0.054997,0.474436,0.687327,-0.072027,0.597123,0.607408,-0.020215,0.577304,0.543581,-0.033945,0.566596,0.502817,-0.047312,0.559097,0.467921,-0.057831,0.632987,0.59259,-0.020618,0.631416,0.52257,-0.028161,0.630066,0.479491,-0.036533,0.62953,0.445346,-0.044705,0.6665,0.600179,-0.024397,0.679192,0.540904,-0.033161,0.685809,0.504457,-0.041903,0.69087,0.473488,-0.049463,0.694254,0.623877,-0.030991,0.71996,0.590786,-0.038843,0.735543,0.565966,-0.042975,0.747924,0.54211,-0.046547,1,0,0
111,'2026/05/06 10:37:43:649',1,0.654152,0.766523,0,0.60211,0.743839,-0.02439,0.553178,0.713146,-0.041248,0.511552,0.693494,-0.057974,0.476543,0.687922,-0.075724,0.596474,0.606406,-0.021261,0.577553,0.542373,-0.035514,0.567138,0.502386,-0.049217,0.559482,0.468339,-0.059893,0.632968,0.592278,-0.021314,0.632506,0.522842,-0.02937,0.630832,0.480818,-0.037915,0.629486,0.447852,-0.046107,0.666836,0.599943,-0.024927,0.679543,0.539734,-0.034297,0.685899,0.503306,-0.043246,0.690702,0.472638,-0.05079,0.694741,0.62357,-0.03147,0.72045,0.590048,-0.039773,0.736031,0.565904,-0.044064,0.74808,0.542778,-0.047697,1,0,0
112,'2026/05/06 10:37:43:680',1,0.653966,0.76857,0,0.602549,0.74457,-0.023423,0.55368,0.713407,-0.039923,0.513185,0.693049,-0.056361,0.478346,0.686896,-0.07386,0.596931,0.607145,-0.020582,0.577384,0.543889,-0.034387,0.566679,0.503161,-0.047891,0.558867,0.468399,-0.05866,0.633183,0.592614,-0.021054,0.631705,0.522408,-0.029076,0.630438,0.480059,-0.037631,0.629679,0.447494,-0.046049,0.667042,0.600037,-0.024955,0.679149,0.53937,-0.034643,0.686983,0.50289,-0.044115,0.693002,0.473119,-0.052122,0.695219,0.623841,-0.031619,0.720567,0.589184,-0.040556,0.736157,0.565037,-0.045419,0.747672,0.542355,-0.049541,1,0,0
113,'2026/05/06 10:37:43:712',1,0.653664,0.767636,0,0.601564,0.743829,-0.024143,0.552622,0.712761,-0.041308,0.512354,0.693092,-0.058291,0.477926,0.688294,-0.076414,0.596441,0.606888,-0.02241,0.578049,0.54328,-0.037142,0.567488,0.502992,-0.051289,0.559366,0.468143,-0.062468,0.632969,0.592818,-0.02289,0.632261,0.522804,-0.031843,0.6301,0.480328,-0.041181,0.628491,0.44609,-0.050081,0.666813,0.600542,-0.026763,0.679316,0.539761,-0.036921,0.686546,0.502342,-0.046842,0.692185,0.470755,-0.05522,0.694852,0.624451,-0.033447,0.720391,0.590511,-0.042434,0.736218,0.566268,-0.047368,0.74836,0.543114,-0.051625,1,0,0
114,'2026/05/06 10:37:43:743',1,0.654729,0.769095,0,0.601965,0.746542,-0.023832,0.552867,0.713895,-0.040307,0.510748,0.693394,-0.056476,0.475087,0.689425,-0.073732,0.597251,0.607548,-0.022166,0.577724,0.542947,-0.036013,0.567378,0.502356,-0.049346,0.560196,0.467748,-0.060002,0.633693,0.592651,-0.022259,0.632349,0.52295,-0.029747,0.631433,0.480726,-0.037918,0.6312,0.44714,-0.046174,0.667504,0.600118,-0.025697,0.680393,0.540017,-0.034365,0.687575,0.503472,-0.043221,0.692995,0.472252,-0.05119,0.695695,0.623998,-0.032008,0.721603,0.590581,-0.040345,0.737039,0.565961,-0.045034,0.749096,0.541975,-0.049143,1,0,0
115,'2026/05/06 10:37:43:775',1,0.65347,0.768413,0,0.601617,0.744998,-0.023166,0.55286,0.713816,-0.03954,0.512926,0.693755,-0.055764,0.478778,0.688327,-0.073115,0.596753,0.607485,-0.020961,0.577941,0.543574,-0.034592,0.567311,0.502951,-0.048077,0.559486,0.468077,-0.05884,0.633106,0.592972,-0.02138,0.632066,0.522043,-0.029111,0.630591,0.479436,-0.037707,0.629866,0.445834,-0.046202,0.66697,0.600455,-0.02509,0.67958,0.539994,-0.033979,0.687492,0.50273,-0.043573,0.693865,0.471569,-0.051979,0.695215,0.623773,-0.031542,0.720624,0.589527,-0.03974,0.736795,0.565672,-0.044429,0.749625,0.542999,-0.048612,1,0,0
116,'2026/05/06 10:37:43:810',1,0.653495,0.770117,0,0.602083,0.74627,-0.024084,0.5538,0.71491,-0.040911,0.513927,0.695145,-0.057451,0.479648,0.690183,-0.075116,0.596457,0.607461,-0.022076,0.577854,0.544231,-0.036503,0.567247,0.50379,-0.050356,0.559157,0.468935,-0.061354,0.632985,0.593607,-0.022657,0.632092,0.522149,-0.031496,0.6303,0.479246,-0.040663,0.629199,0.445016,-0.049436,0.666846,0.601724,-0.026631,0.679479,0.540814,-0.037038,0.686928,0.503704,-0.047079,0.692697,0.472255,-0.055497,0.694852,0.625907,-0.033357,0.719985,0.59112,-0.042757,0.735981,0.567089,-0.047773,0.748398,0.544035,-0.052076,1,0,0
117,'2026/05/06 10:37:43:840',1,0.653834,0.768263,0,0.601819,0.745732,-0.023623,0.553023,0.714707,-0.0401,0.511494,0.695962,-0.056403,0.476182,0.692162,-0.073817,0.596854,0.607746,-0.021599,0.577761,0.544024,-0.035619,0.567163,0.503205,-0.049066,0.559441,0.468338,-0.059742,0.633137,0.593284,-0.021905,0.631769,0.523831,-0.029823,0.630304,0.481065,-0.038293,0.629679,0.447224,-0.046693,0.666881,0.600852,-0.025576,0.679252,0.540929,-0.034665,0.686271,0.504235,-0.043784,0.691863,0.473389,-0.051802,0.695038,0.624568,-0.032083,0.72061,0.590909,-0.040666,0.736528,0.566679,-0.045401,0.74921,0.54376,-0.04949,1,0,0
118,'2026/05/06 10:37:43:877',1,0.653875,0.769454,0,0.6016,0.746114,-0.023349,0.552917,0.715123,-0.039801,0.512555,0.696112,-0.056121,0.477629,0.691477,-0.073654,0.596373,0.608136,-0.020971,0.577258,0.544433,-0.034649,0.566718,0.50385,-0.048123,0.558911,0.469021,-0.058959,0.632761,0.594068,-0.02158,0.631688,0.522855,-0.029672,0.629931,0.480296,-0.038602,0.629015,0.44657,-0.047371,0.666505,0.601933,-0.025522,0.678813,0.540639,-0.035116,0.686203,0.503332,-0.045037,0.691999,0.471926,-0.053625,0.69459,0.625883,-0.032183,0.719819,0.5912,-0.040988,0.735653,0.567232,-0.045926,0.747947,0.544382,-0.050326,1,0,0
119,'2026/05/06 10:37:43:914',1,0.654314,0.768721,0,0.602226,0.745781,-0.023878,0.553425,0.715254,-0.040524,0.512609,0.695855,-0.056956,0.478159,0.690774,-0.074489,0.596562,0.608791,-0.021439,0.577757,0.545147,-0.03543,0.567198,0.504559,-0.049087,0.559077,0.469709,-0.059926,0.632815,0.594574,-0.021704,0.632085,0.523868,-0.029895,0.629991,0.481303,-0.038882,0.628387,0.44713,-0.047598,0.666579,0.602121,-0.025332,0.679047,0.540936,-0.034805,0.686093,0.503693,-0.044481,0.691465,0.472145,-0.052788,0.694644,0.625578,-0.031751,0.720182,0.590931,-0.040205,0.736063,0.566928,-0.044822,0.748267,0.544207,-0.0489,1,0,0
120,'2026/05/06 10:37:43:943',1,0.653803,0.770283,0,0.602798,0.746832,-0.023678,0.554798,0.715769,-0.040476,0.514485,0.695523,-0.05717,0.480028,0.689493,-0.074824,0.596668,0.608115,-0.021066,0.577735,0.544983,-0.035403,0.56699,0.504849,-0.049253,0.559075,0.470328,-0.060187,0.632979,0.593735,-0.02165,0.631933,0.522775,-0.029948,0.630323,0.480748,-0.038418,0.628873,0.447797,-0.046625,0.666744,0.601574,-0.025697,0.67937,0.540706,-0.035436,0.687166,0.503733,-0.044536,0.692767,0.472613,-0.052247,0.694752,0.625585,-0.032551,0.720376,0.590888,-0.041331,0.736117,0.567007,-0.045752,0.747728,0.544227,-0.049513,1,0,0
121,'2026/05/06 10:37:43:978',1,0.655005,0.770326,0,0.602991,0.746722,-0.023713,0.554143,0.715832,-0.040178,0.513418,0.695588,-0.056485,0.478687,0.689763,-0.07389,0.596802,0.609431,-0.020829,0.57786,0.545097,-0.034884,0.5673,0.50412,-0.048598,0.559413,0.468837,-0.059502,0.63322,0.594837,-0.021315,0.632174,0.524283,-0.029708,0.630273,0.481463,-0.038837,0.629146,0.447296,-0.047595,0.667034,0.602153,-0.025226,0.679409,0.541307,-0.0349,0.686361,0.503844,-0.044692,0.692001,0.472217,-0.053052,0.695072,0.625344,-0.031927,0.720238,0.591141,-0.04064,0.736104,0.566905,-0.04553,0.748737,0.543903,-0.049774,1,0,0
122,'2026/05/06 10:37:44:007',1,0.655391,0.771265,0,0.601936,0.748217,-0.023288,0.552782,0.715092,-0.038816,0.511594,0.695323,-0.054212,0.476372,0.692803,-0.070696,0.596739,0.608632,-0.019262,0.577646,0.544881,-0.032095,0.567131,0.504136,-0.044885,0.559392,0.469295,-0.055231,0.633003,0.594311,-0.019651,0.631677,0.524241,-0.026996,0.63019,0.481128,-0.03543,0.629611,0.446986,-0.04372,0.666792,0.601834,-0.023516,0.678998,0.542255,-0.032722,0.686033,0.505021,-0.04259,0.69164,0.473658,-0.050912,0.695003,0.625127,-0.03015,0.720449,0.591049,-0.038734,0.736524,0.566969,-0.043819,0.749359,0.544086,-0.048161,1,0,0
123,'2026/05/06 10:37:44:039',1,0.655164,0.77077,0,0.602297,0.74764,-0.023299,0.553487,0.714789,-0.038918,0.512203,0.694955,-0.054471,0.477134,0.691014,-0.071103,0.597283,0.608332,-0.01918,0.578554,0.544501,-0.032271,0.568062,0.504749,-0.045319,0.560276,0.470681,-0.055747,0.633713,0.593969,-0.019467,0.63271,0.524021,-0.026649,0.630752,0.481561,-0.034983,0.62926,0.447898,-0.043193,0.667442,0.601736,-0.023246,0.680389,0.541238,-0.032145,0.686934,0.504316,-0.041399,0.691763,0.473097,-0.049296,0.695352,0.6256,-0.02983,0.721356,0.591912,-0.038153,0.737015,0.567588,-0.042824,0.749116,0.544276,-0.046799,1,0,0
124,'2026/05/06 10:37:44:067',1,0.654318,0.769338,0,0.60285,0.745903,-0.024091,0.554533,0.715111,-0.041063,0.514254,0.695467,-0.057854,0.479514,0.689991,-0.07571,0.597364,0.607871,-0.021769,0.578158,0.544228,-0.03623,0.56757,0.503782,-0.050076,0.559832,0.469045,-0.060996,0.63362,0.593827,-0.022256,0.632995,0.522994,-0.030795,0.631078,0.480592,-0.039615,0.629668,0.447124,-0.048066,0.667354,0.601565,-0.026199,0.680328,0.540631,-0.036148,0.687528,0.503305,-0.045842,0.693055,0.471963,-0.054017,0.695201,0.625317,-0.032966,0.721085,0.59127,-0.04202,0.737219,0.56738,-0.046914,0.749668,0.544655,-0.05107,1,0,0
125,'2026/05/06 10:37:44:100',1,0.655559,0.768605,0,0.602757,0.74639,-0.022949,0.553605,0.715157,-0.038606,0.512619,0.69547,-0.054063,0.477365,0.691724,-0.070694,0.597222,0.608979,-0.020402,0.578176,0.544619,-0.033361,0.567935,0.503288,-0.046233,0.560414,0.468281,-0.056621,0.633502,0.594299,-0.020786,0.632148,0.523793,-0.027948,0.630873,0.480602,-0.036411,0.630585,0.446485,-0.044924,0.667318,0.601568,-0.024438,0.679889,0.541363,-0.033117,0.687035,0.503723,-0.042878,0.692598,0.472229,-0.051487,0.695472,0.62486,-0.0308,0.720945,0.591129,-0.039134,0.736828,0.56694,-0.044117,0.749286,0.544172,-0.048535,1,0,0
126,'2026/05/06 10:37:44:130',1,0.655441,0.769162,0,0.603317,0.74631,-0.023784,0.554609,0.715255,-0.040149,0.512501,0.695444,-0.056366,0.477166,0.690146,-0.073691,0.597963,0.609057,-0.020904,0.578342,0.54491,-0.034873,0.567611,0.503954,-0.048443,0.559775,0.468703,-0.059173,0.634261,0.594152,-0.021117,0.632793,0.523672,-0.029048,0.631095,0.480586,-0.037636,0.630274,0.446359,-0.045989,0.668039,0.601612,-0.024755,0.680138,0.540674,-0.033993,0.687021,0.503546,-0.04312,0.692664,0.472202,-0.050958,0.696037,0.625067,-0.031236,0.721451,0.59081,-0.039725,0.737486,0.566648,-0.04417,0.750363,0.543885,-0.047954,1,0,0
127,'2026/05/06 10:37:44:174',1,0.654805,0.769708,0,0.602929,0.745766,-0.02372,0.554174,0.71428,-0.040048,0.512469,0.695161,-0.05628,0.477445,0.690562,-0.073613,0.598041,0.608605,-0.020348,0.578649,0.544809,-0.034103,0.567738,0.504156,-0.047624,0.559656,0.46921,-0.058351,0.634179,0.594319,-0.020678,0.633382,0.523834,-0.028517,0.631273,0.480955,-0.037219,0.629578,0.446716,-0.045637,0.66786,0.602032,-0.024467,0.680674,0.54112,-0.033597,0.687348,0.503983,-0.042839,0.692379,0.472412,-0.050732,0.695638,0.62581,-0.031105,0.721381,0.591735,-0.03924,0.737087,0.567334,-0.043576,0.749121,0.544167,-0.047356,1,0,0
128,'2026/05/06 10:37:44:208',1,0.655606,0.771744,0,0.60256,0.747754,-0.022742,0.553448,0.71468,-0.038108,0.512839,0.69457,-0.053523,0.477983,0.690558,-0.070069,0.59769,0.607943,-0.018425,0.578384,0.543716,-0.031643,0.567947,0.502997,-0.044991,0.560252,0.468447,-0.055607,0.63422,0.593784,-0.019141,0.633382,0.523116,-0.026333,0.631923,0.479707,-0.034944,0.630981,0.445449,-0.043355,0.668129,0.601673,-0.023365,0.680995,0.541189,-0.032202,0.687951,0.504347,-0.041764,0.693195,0.473189,-0.049913,0.696429,0.625645,-0.030362,0.722437,0.591465,-0.038654,0.738255,0.566937,-0.043411,0.750536,0.543575,-0.047462,1,0,0
129,'2026/05/06 10:37:44:240',1,0.656263,0.77154,0,0.603328,0.748289,-0.023017,0.554548,0.714929,-0.038449,0.512857,0.69457,-0.053697,0.477403,0.691325,-0.070019,0.598397,0.60895,-0.01979,0.578578,0.544391,-0.032744,0.567699,0.502802,-0.045485,0.559783,0.467545,-0.055672,0.634263,0.594837,-0.02018,0.632427,0.523695,-0.027324,0.631122,0.479858,-0.035509,0.630845,0.445334,-0.043615,0.667874,0.602538,-0.023918,0.679863,0.542253,-0.032494,0.686845,0.505042,-0.041645,0.692431,0.473644,-0.049566,0.696065,0.626014,-0.03043,0.721026,0.590979,-0.038312,0.736942,0.566468,-0.042684,0.749774,0.543345,-0.046531,1,0,0
130,'2026/05/06 10:37:44:271',1,0.656135,0.770453,0,0.604136,0.747763,-0.024152,0.55479,0.71479,-0.040525,0.51239,0.694748,-0.056503,0.476529,0.691272,-0.073516,0.597775,0.608305,-0.021958,0.578338,0.543063,-0.035685,0.567974,0.501957,-0.049002,0.560591,0.466976,-0.059683,0.633941,0.593574,-0.021981,0.632445,0.52356,-0.029583,0.631953,0.480687,-0.038144,0.632353,0.44652,-0.046732,0.667638,0.601145,-0.025394,0.680509,0.540972,-0.03434,0.687815,0.504436,-0.04363,0.6934,0.473329,-0.051848,0.696055,0.62508,-0.03167,0.721916,0.591379,-0.040018,0.737682,0.566557,-0.044829,0.750215,0.542546,-0.049081,1,0,0
131,'2026/05/06 10:37:44:305',1,0.655982,0.769533,0,0.603381,0.746618,-0.023524,0.553956,0.713941,-0.039555,0.511891,0.694019,-0.05535,0.476473,0.690805,-0.072279,0.598254,0.60893,-0.021234,0.578906,0.544901,-0.034801,0.568249,0.504021,-0.047872,0.56032,0.469172,-0.058268,0.633993,0.594287,-0.021471,0.632764,0.524168,-0.029119,0.631347,0.481435,-0.037462,0.63072,0.447563,-0.04564,0.667463,0.601487,-0.02505,0.680014,0.54149,-0.03409,0.686828,0.504002,-0.043435,0.692306,0.472216,-0.05148,0.695393,0.624798,-0.03142,0.721223,0.590989,-0.039665,0.737204,0.566467,-0.044313,0.749897,0.543182,-0.048344,1,0,0
132,'2026/05/06 10:37:44:334',1,0.654509,0.769897,0,0.602192,0.74588,-0.02342,0.553871,0.714086,-0.039675,0.513469,0.69431,-0.055874,0.478869,0.69018,-0.073166,0.597634,0.607717,-0.020584,0.578596,0.543501,-0.034655,0.568175,0.502416,-0.048287,0.560638,0.467414,-0.059016,0.634042,0.593594,-0.020969,0.632974,0.523954,-0.028788,0.631593,0.481199,-0.037252,0.630815,0.447561,-0.045491,0.667898,0.601252,-0.024807,0.680671,0.54125,-0.033787,0.68758,0.504654,-0.042849,0.692964,0.474008,-0.050653,0.696153,0.624961,-0.031506,0.722188,0.591378,-0.039818,0.738068,0.567038,-0.044425,0.750561,0.544034,-0.048321,1,0,0
133,'2026/05/06 10:37:44:365',1,0.655576,0.769521,0,0.602608,0.746639,-0.023506,0.553446,0.714714,-0.039783,0.511881,0.69488,-0.055867,0.476381,0.691744,-0.073065,0.597985,0.608854,-0.021394,0.578277,0.543959,-0.035435,0.567801,0.50253,-0.049023,0.560445,0.467756,-0.05979,0.634179,0.594415,-0.021779,0.63299,0.523717,-0.0295,0.632363,0.480673,-0.038149,0.632801,0.446697,-0.046703,0.667892,0.60206,-0.025528,0.680694,0.54154,-0.034487,0.687565,0.50525,-0.043816,0.692851,0.474672,-0.052023,0.696184,0.625942,-0.032114,0.721861,0.592471,-0.040744,0.737496,0.567729,-0.045686,0.749907,0.54395,-0.049913,1,0,0
134,'2026/05/06 10:37:44:397',1,0.655026,0.771091,0,0.602183,0.746998,-0.022892,0.553304,0.715081,-0.038589,0.513299,0.695117,-0.054184,0.478761,0.690126,-0.070882,0.597336,0.60769,-0.019231,0.578335,0.544024,-0.032102,0.568074,0.503341,-0.045137,0.560507,0.468532,-0.055722,0.633881,0.593336,-0.019771,0.632788,0.522017,-0.026934,0.63123,0.479295,-0.035265,0.630258,0.445973,-0.043598,0.667817,0.601312,-0.023714,0.680379,0.540534,-0.032546,0.687909,0.50331,-0.04224,0.693777,0.472117,-0.050704,0.696009,0.625434,-0.030392,0.721632,0.591532,-0.038925,0.737517,0.567586,-0.043955,0.749897,0.544655,-0.04836,1,0,0
135,'2026/05/06 10:37:44:428',1,0.655671,0.771288,0,0.603138,0.747511,-0.023737,0.554158,0.714073,-0.039577,0.511856,0.694009,-0.055294,0.476251,0.691108,-0.072042,0.59871,0.608885,-0.019706,0.578703,0.544465,-0.03317,0.568116,0.503465,-0.04634,0.560619,0.468769,-0.056737,0.634571,0.594163,-0.019744,0.633325,0.52381,-0.027064,0.632015,0.480896,-0.03507,0.631269,0.447135,-0.042864,0.668146,0.601535,-0.023335,0.680623,0.541021,-0.031997,0.687134,0.504187,-0.04061,0.692238,0.473012,-0.047974,0.696208,0.62501,-0.029851,0.721913,0.591104,-0.037712,0.737745,0.566597,-0.041877,0.750434,0.543424,-0.045398,1,0,0
136,'2026/05/06 10:37:44:472',1,0.654436,0.769482,0,0.602035,0.74612,-0.022966,0.553338,0.714743,-0.038979,0.51287,0.695132,-0.055004,0.478391,0.69045,-0.072114,0.597558,0.608029,-0.019446,0.578702,0.543739,-0.033059,0.568285,0.502984,-0.04666,0.560688,0.468389,-0.057452,0.634115,0.5938,-0.020035,0.63343,0.523266,-0.02732,0.632141,0.480343,-0.035912,0.631657,0.446581,-0.044463,0.667969,0.601565,-0.024074,0.680643,0.54078,-0.032598,0.687702,0.50364,-0.04203,0.693242,0.472696,-0.05037,0.696202,0.625465,-0.030928,0.722087,0.591794,-0.038992,0.738002,0.567519,-0.043698,0.750448,0.544589,-0.04787,1,0,0
137,'2026/05/06 10:37:44:504',1,0.654711,0.771785,0,0.602425,0.747089,-0.023753,0.553773,0.714601,-0.040051,0.512769,0.694839,-0.056182,0.477921,0.69049,-0.073416,0.597176,0.608081,-0.02037,0.578268,0.54392,-0.034275,0.567828,0.502802,-0.04788,0.559978,0.467813,-0.05871,0.633833,0.593898,-0.020841,0.632955,0.522549,-0.028919,0.631147,0.480043,-0.037686,0.629991,0.446524,-0.046137,0.668024,0.601659,-0.024809,0.680383,0.540721,-0.034242,0.687442,0.503376,-0.04388,0.69302,0.472,-0.052106,0.696401,0.625519,-0.031612,0.721467,0.591172,-0.040153,0.737369,0.567052,-0.04488,0.749853,0.544338,-0.048974,1,0,0
138,'2026/05/06 10:37:44:534',1,0.655072,0.770177,0,0.603227,0.746323,-0.023885,0.554534,0.714131,-0.0404,0.51308,0.694839,-0.056667,0.477961,0.690859,-0.074009,0.598065,0.608872,-0.021875,0.578895,0.544364,-0.035969,0.56825,0.503372,-0.049416,0.560293,0.468571,-0.059984,0.634011,0.594459,-0.022104,0.633028,0.523551,-0.030294,0.631331,0.480072,-0.038991,0.630413,0.445495,-0.047324,0.667693,0.601898,-0.025682,0.680482,0.541358,-0.034979,0.687375,0.504282,-0.044361,0.692706,0.47286,-0.052328,0.695709,0.625446,-0.032082,0.721424,0.591521,-0.040349,0.737352,0.567234,-0.04484,0.749859,0.544281,-0.048689,1,0,0
139,'2026/05/06 10:37:44:574',1,0.655233,0.770684,0,0.602575,0.748158,-0.023686,0.553495,0.715459,-0.039633,0.512316,0.695371,-0.05529,0.47692,0.692389,-0.072053,0.597872,0.608301,-0.020779,0.578554,0.544273,-0.034203,0.568241,0.503088,-0.047501,0.560783,0.468098,-0.05818,0.63413,0.59406,-0.020989,0.633028,0.523982,-0.028443,0.632301,0.481067,-0.036915,0.632316,0.447091,-0.045363,0.66778,0.601819,-0.024627,0.680535,0.541602,-0.033637,0.687517,0.504649,-0.043203,0.69283,0.473266,-0.051531,0.696205,0.625688,-0.031086,0.722491,0.591112,-0.039677,0.738638,0.566422,-0.044665,0.751285,0.542737,-0.048987,1,0,0
140,'2026/05/06 10:37:44:612',1,0.655556,0.771158,0,0.603281,0.748464,-0.024175,0.55424,0.715323,-0.040528,0.511823,0.695128,-0.056533,0.475869,0.69225,-0.073581,0.597937,0.6098,-0.0217,0.578596,0.545051,-0.03523,0.568552,0.504525,-0.048337,0.561664,0.470008,-0.058869,0.634117,0.595124,-0.021677,0.632898,0.524083,-0.029155,0.632578,0.481287,-0.037465,0.632949,0.44742,-0.04581,0.667806,0.602755,-0.02507,0.680805,0.542125,-0.033966,0.687906,0.506003,-0.043065,0.693195,0.475035,-0.051044,0.696294,0.626595,-0.03134,0.722461,0.591969,-0.039678,0.73827,0.56708,-0.044382,0.750653,0.542906,-0.048486,1,0,0
141,'2026/05/06 10:37:44:643',1,0.655787,0.769647,0,0.603213,0.746302,-0.023894,0.554091,0.71431,-0.040372,0.512404,0.694975,-0.056569,0.477141,0.690975,-0.073879,0.597902,0.608129,-0.021821,0.578653,0.544002,-0.035925,0.568184,0.502733,-0.049458,0.560461,0.467746,-0.060123,0.634136,0.593467,-0.021997,0.632789,0.523014,-0.030062,0.631388,0.479768,-0.038633,0.630747,0.44542,-0.046947,0.66792,0.600986,-0.025568,0.680336,0.540814,-0.034974,0.687134,0.503781,-0.044419,0.692408,0.472501,-0.052474,0.695998,0.624579,-0.031957,0.72175,0.590997,-0.040572,0.737731,0.566848,-0.045352,0.750313,0.544001,-0.049395,1,0,0
142,'2026/05/06 10:37:44:678',1,0.654613,0.771071,0,0.602277,0.746731,-0.023309,0.553724,0.713755,-0.039254,0.511824,0.694819,-0.055085,0.476332,0.692122,-0.072028,0.597773,0.607955,-0.020282,0.578635,0.5439,-0.033971,0.567976,0.50304,-0.047293,0.560074,0.468274,-0.057884,0.633967,0.593824,-0.020808,0.632782,0.523922,-0.028535,0.631389,0.481112,-0.037047,0.630704,0.446961,-0.045344,0.667653,0.601688,-0.024762,0.680323,0.541945,-0.033914,0.687204,0.505273,-0.043123,0.692568,0.473975,-0.051013,0.695622,0.62573,-0.031533,0.721404,0.592144,-0.039869,0.737435,0.567761,-0.044388,0.750065,0.544454,-0.048282,1,0,0
143,'2026/05/06 10:37:44:707',1,0.654259,0.770025,0,0.602432,0.745933,-0.023176,0.553846,0.714743,-0.039612,0.513863,0.695372,-0.055929,0.479205,0.690709,-0.073469,0.597554,0.60831,-0.020907,0.578767,0.544717,-0.03473,0.568308,0.503874,-0.048339,0.560571,0.468687,-0.059265,0.633788,0.594576,-0.021716,0.632722,0.523562,-0.029952,0.631214,0.480636,-0.03909,0.630676,0.44641,-0.048011,0.667434,0.602749,-0.025834,0.680022,0.541987,-0.035482,0.687356,0.504451,-0.045634,0.693206,0.472722,-0.054384,0.695527,0.626751,-0.032656,0.721123,0.591949,-0.041498,0.737321,0.567641,-0.046568,0.750156,0.544403,-0.051073,1,0,0
144,'2026/05/06 10:37:44:737',1,0.654968,0.770079,0,0.60319,0.745895,-0.023987,0.554745,0.714502,-0.04069,0.514017,0.694604,-0.057229,0.478944,0.689474,-0.074784,0.597664,0.607668,-0.021148,0.578876,0.54394,-0.035007,0.568454,0.503399,-0.048463,0.560602,0.468321,-0.059224,0.634122,0.593511,-0.021536,0.633209,0.522099,-0.029687,0.631363,0.4798,-0.038331,0.629923,0.446412,-0.046773,0.668046,0.601475,-0.025349,0.680237,0.540271,-0.034879,0.687266,0.503389,-0.044197,0.692557,0.472467,-0.052175,0.696168,0.625663,-0.032013,0.721607,0.590871,-0.04048,0.737359,0.566646,-0.045009,0.749393,0.543725,-0.049009,1,0,0
145,'2026/05/06 10:37:44:771',1,0.656099,0.770947,0,0.604342,0.748132,-0.023256,0.555717,0.714195,-0.038887,0.513524,0.694334,-0.054329,0.477903,0.691593,-0.0708,0.598523,0.608457,-0.020465,0.578921,0.543971,-0.033912,0.568511,0.502984,-0.046851,0.561111,0.468491,-0.057081,0.634155,0.594078,-0.020841,0.633084,0.523249,-0.02807,0.632336,0.480019,-0.035966,0.632072,0.446127,-0.04377,0.667522,0.601781,-0.02462,0.680506,0.541581,-0.033354,0.687446,0.505062,-0.042059,0.692514,0.474059,-0.049571,0.695537,0.625772,-0.03123,0.721541,0.592443,-0.039376,0.737613,0.56772,-0.043735,0.750313,0.54399,-0.047431,1,0,0
146,'2026/05/06 10:37:44:802',1,0.65581,0.771057,0,0.603579,0.747382,-0.024065,0.554585,0.714716,-0.040504,0.51303,0.695068,-0.056643,0.477822,0.691432,-0.073914,0.598232,0.608736,-0.021753,0.579419,0.544589,-0.035507,0.568922,0.503613,-0.04884,0.561048,0.468563,-0.059533,0.634413,0.594539,-0.021936,0.633696,0.524084,-0.029914,0.631957,0.48152,-0.038631,0.630918,0.447554,-0.047171,0.668147,0.60198,-0.025504,0.680913,0.541426,-0.034774,0.688121,0.503914,-0.044522,0.693728,0.472081,-0.052974,0.696054,0.625486,-0.031905,0.72156,0.591724,-0.040327,0.737601,0.567655,-0.045188,0.750049,0.544814,-0.049518,1,0,0
147,'2026/05/06 10:37:44:831',1,0.655854,0.770674,0,0.604082,0.745876,-0.023369,0.555554,0.713717,-0.039824,0.515327,0.693703,-0.056156,0.480693,0.688273,-0.073625,0.598385,0.607974,-0.020984,0.579714,0.544044,-0.034953,0.569129,0.503347,-0.048662,0.561175,0.468595,-0.059623,0.634799,0.594194,-0.021729,0.633935,0.522928,-0.029845,0.632005,0.480654,-0.038669,0.630673,0.447452,-0.047286,0.668735,0.602384,-0.025853,0.681357,0.540467,-0.03536,0.688623,0.503094,-0.045023,0.694225,0.471857,-0.053392,0.69688,0.626852,-0.03275,0.722352,0.59211,-0.041547,0.738208,0.567983,-0.046358,0.750406,0.545073,-0.050585,1,0,0
148,'2026/05/06 10:37:44:862',1,0.655954,0.772102,0,0.603377,0.747172,-0.023184,0.554568,0.714336,-0.039149,0.514632,0.694026,-0.055091,0.480128,0.689417,-0.072112,0.59829,0.607309,-0.019484,0.579327,0.543162,-0.032819,0.568987,0.502394,-0.046123,0.561329,0.467411,-0.056856,0.634619,0.593526,-0.020176,0.63374,0.522762,-0.027764,0.632083,0.480326,-0.036125,0.63105,0.44703,-0.044353,0.668352,0.601757,-0.024373,0.681017,0.54017,-0.033695,0.688405,0.502763,-0.043174,0.694186,0.471661,-0.051312,0.696433,0.626171,-0.031372,0.721989,0.591777,-0.040317,0.737974,0.567554,-0.04532,0.750631,0.544495,-0.049571,1,0,0
149,'2026/05/06 10:37:44:894',1,0.656152,0.770984,0,0.603054,0.746972,-0.023527,0.554258,0.713828,-0.039444,0.512718,0.693643,-0.055243,0.4775,0.690557,-0.072192,0.598691,0.609213,-0.02016,0.579786,0.544827,-0.033826,0.569451,0.503546,-0.047306,0.561814,0.468466,-0.058035,0.635003,0.594676,-0.020455,0.633759,0.5242,-0.028048,0.632368,0.48133,-0.036649,0.631783,0.446984,-0.045098,0.668962,0.602028,-0.024197,0.681162,0.541229,-0.033019,0.687978,0.50443,-0.042248,0.693365,0.473287,-0.050268,0.697233,0.625597,-0.030808,0.722706,0.591184,-0.038626,0.738479,0.56712,-0.042992,0.750837,0.54467,-0.046891,1,0,0
150,'2026/05/06 10:37:44:932',1,0.656065,0.771178,0,0.603514,0.746905,-0.023927,0.554246,0.714567,-0.04042,0.512894,0.694965,-0.056648,0.478086,0.690489,-0.074,0.598441,0.608169,-0.021658,0.579792,0.544537,-0.035715,0.56938,0.503661,-0.049286,0.561423,0.468704,-0.060117,0.634821,0.594103,-0.022088,0.63413,0.523367,-0.030316,0.632264,0.480808,-0.039031,0.631013,0.446951,-0.047499,0.668692,0.602093,-0.025942,0.681425,0.541226,-0.03567,0.688429,0.504347,-0.045345,0.693784,0.473074,-0.053593,0.696734,0.626369,-0.032613,0.722357,0.592254,-0.041649,0.738157,0.568055,-0.046632,0.750278,0.544968,-0.050895,1,0,0
151,'2026/05/06 10:37:44:976',1,0.65599,0.771869,0,0.603995,0.74767,-0.024001,0.555249,0.7154,-0.040531,0.514147,0.6949,-0.05678,0.479138,0.689957,-0.074119,0.598374,0.609171,-0.02154,0.579637,0.544849,-0.035458,0.569265,0.503572,-0.048923,0.561415,0.468027,-0.059711,0.634913,0.594791,-0.021809,0.634269,0.523582,-0.029935,0.632506,0.481163,-0.038531,0.631284,0.447367,-0.046952,0.668806,0.602551,-0.025475,0.681335,0.541198,-0.034905,0.688313,0.503726,-0.044317,0.693674,0.471959,-0.052478,0.696767,0.626401,-0.031978,0.72216,0.592006,-0.040529,0.737966,0.567871,-0.045215,0.750249,0.544841,-0.049357,1,0,0
152,'2026/05/06 10:37:45:005',1,0.655082,0.770104,0,0.603486,0.745957,-0.023429,0.554825,0.714289,-0.03993,0.514864,0.694086,-0.056384,0.480423,0.688698,-0.073901,0.598443,0.607359,-0.02008,0.579945,0.544281,-0.033662,0.569594,0.504187,-0.047245,0.5619,0.469833,-0.05812,0.634644,0.59346,-0.020643,0.634037,0.522393,-0.028474,0.632577,0.480344,-0.037186,0.631352,0.447637,-0.045699,0.668332,0.601465,-0.024638,0.681197,0.540298,-0.034008,0.688873,0.503221,-0.043598,0.694427,0.472431,-0.051784,0.69635,0.625807,-0.031424,0.722289,0.591611,-0.039908,0.738072,0.567499,-0.044602,0.749825,0.544632,-0.048708,1,0,0
153,'2026/05/06 10:37:45:039',1,0.655971,0.771413,0,0.603511,0.746666,-0.023385,0.554279,0.713728,-0.039627,0.51296,0.69389,-0.055736,0.478108,0.689899,-0.072952,0.59869,0.607768,-0.020906,0.579512,0.543236,-0.034614,0.56897,0.50204,-0.047985,0.561011,0.467218,-0.05866,0.635094,0.593912,-0.021427,0.634104,0.523134,-0.029264,0.632537,0.480001,-0.037849,0.631669,0.445938,-0.046251,0.668894,0.602057,-0.025338,0.681356,0.541111,-0.034482,0.688527,0.504042,-0.044025,0.694051,0.472912,-0.052299,0.697043,0.626353,-0.032051,0.722641,0.592328,-0.04062,0.73851,0.568196,-0.045472,0.750892,0.545372,-0.049668,1,0,0
154,'2026/05/06 10:37:45:088',1,0.656565,0.770379,0,0.604361,0.746183,-0.024247,0.555454,0.713884,-0.040964,0.513512,0.694203,-0.057474,0.478163,0.689633,-0.075075,0.598558,0.608282,-0.021662,0.579809,0.543709,-0.035859,0.569347,0.503325,-0.049499,0.561369,0.468809,-0.060207,0.635117,0.593837,-0.021765,0.634517,0.523279,-0.029874,0.632537,0.480819,-0.038509,0.630861,0.447189,-0.046785,0.669219,0.601485,-0.025344,0.681658,0.541331,-0.034781,0.688514,0.504891,-0.044085,0.693809,0.474062,-0.051894,0.697295,0.625111,-0.031799,0.722804,0.591232,-0.040119,0.738587,0.567445,-0.044519,0.750871,0.544941,-0.048269,1,0,0
155,'2026/05/06 10:37:45:115',1,0.656018,0.771138,0,0.603719,0.747197,-0.023616,0.554846,0.714714,-0.039843,0.513369,0.69449,-0.055839,0.47809,0.689931,-0.072924,0.598222,0.60816,-0.021088,0.579579,0.543845,-0.034516,0.569238,0.502974,-0.047616,0.561377,0.467835,-0.058206,0.634666,0.594112,-0.021501,0.633746,0.523042,-0.029192,0.632146,0.480464,-0.037605,0.631128,0.446639,-0.046005,0.668544,0.602292,-0.025285,0.680992,0.541067,-0.034528,0.688434,0.503573,-0.044011,0.694125,0.471927,-0.052289,0.696634,0.626566,-0.031859,0.72221,0.592035,-0.04055,0.738133,0.567852,-0.0454,0.750546,0.54483,-0.049669,1,0,0
156,'2026/05/06 10:37:45:145',1,0.655297,0.769274,0,0.602339,0.746206,-0.023277,0.553481,0.714082,-0.039137,0.512192,0.694564,-0.054854,0.477278,0.691326,-0.071662,0.598254,0.607546,-0.020347,0.579305,0.542936,-0.033691,0.569189,0.502192,-0.046744,0.561738,0.468049,-0.057081,0.634595,0.593414,-0.020538,0.634029,0.523186,-0.027512,0.633221,0.480683,-0.035486,0.632745,0.44757,-0.043491,0.66863,0.601151,-0.024176,0.682083,0.541131,-0.032611,0.689185,0.504938,-0.041726,0.694333,0.474481,-0.049698,0.697262,0.624994,-0.030644,0.723588,0.591359,-0.038863,0.739157,0.567154,-0.043604,0.750976,0.544108,-0.047641,1,0,0
157,'2026/05/06 10:37:45:176',1,0.655332,0.769855,0,0.603603,0.746345,-0.023856,0.555145,0.715358,-0.040622,0.514252,0.695626,-0.057079,0.47935,0.689868,-0.074644,0.597887,0.607433,-0.021843,0.579397,0.543976,-0.035716,0.569198,0.503171,-0.049207,0.561659,0.468295,-0.060048,0.634282,0.593481,-0.022393,0.633482,0.522696,-0.030659,0.632309,0.479776,-0.039459,0.631833,0.44596,-0.048097,0.668008,0.60172,-0.026323,0.68075,0.541077,-0.036169,0.688556,0.503482,-0.046098,0.694693,0.471645,-0.054683,0.69601,0.625866,-0.033002,0.721586,0.591605,-0.042285,0.7378,0.567683,-0.047432,0.75059,0.544668,-0.051908,1,0,0
158,'2026/05/06 10:37:45:207',1,0.655542,0.770068,0,0.603098,0.746191,-0.023517,0.554162,0.71417,-0.039743,0.513187,0.694963,-0.055839,0.478158,0.691692,-0.073096,0.598746,0.60792,-0.020528,0.579322,0.543706,-0.03426,0.568904,0.502622,-0.047876,0.561333,0.467617,-0.058737,0.635048,0.59389,-0.020912,0.634345,0.523338,-0.028799,0.633403,0.480156,-0.037772,0.633142,0.445727,-0.046486,0.668713,0.601796,-0.024693,0.681894,0.541722,-0.033958,0.689123,0.505394,-0.043691,0.694542,0.474599,-0.052009,0.696897,0.625792,-0.031279,0.722922,0.591946,-0.039825,0.738751,0.567393,-0.044682,0.750922,0.543956,-0.04886,1,0,0
159,'2026/05/06 10:37:45:240',1,0.655051,0.77073,0,0.603934,0.746171,-0.023739,0.555652,0.714845,-0.04081,0.51465,0.694825,-0.057846,0.479845,0.688902,-0.075954,0.598361,0.607822,-0.020937,0.57964,0.544687,-0.035452,0.568967,0.504632,-0.049743,0.561039,0.470105,-0.061069,0.634595,0.593638,-0.021728,0.633941,0.52282,-0.03034,0.632402,0.480699,-0.03951,0.631226,0.447398,-0.048299,0.668357,0.601481,-0.025985,0.681088,0.539686,-0.035925,0.688825,0.502453,-0.04551,0.694666,0.471174,-0.053643,0.696322,0.625537,-0.033064,0.721928,0.590346,-0.041839,0.73796,0.566536,-0.046286,0.750032,0.543948,-0.050166,1,0,0
160,'2026/05/06 10:37:45:268',1,0.655657,0.771069,0,0.603535,0.747988,-0.023695,0.554807,0.715113,-0.040045,0.513595,0.695173,-0.056187,0.478547,0.691437,-0.073456,0.598862,0.608433,-0.021658,0.579504,0.543756,-0.035837,0.569063,0.502784,-0.049494,0.561514,0.468023,-0.060289,0.634941,0.594237,-0.022093,0.634285,0.523267,-0.030112,0.633423,0.480347,-0.038786,0.633147,0.446467,-0.047248,0.668509,0.602057,-0.025926,0.681621,0.541685,-0.035198,0.688738,0.505237,-0.044668,0.694143,0.474135,-0.052855,0.696691,0.625942,-0.032585,0.722562,0.591927,-0.041142,0.738477,0.567392,-0.045937,0.750912,0.543847,-0.050098,1,0,0
161,'2026/05/06 10:37:45:300',1,0.655279,0.771123,0,0.603313,0.746834,-0.023458,0.554914,0.715024,-0.039807,0.515048,0.695175,-0.056051,0.480772,0.689812,-0.073399,0.598277,0.608313,-0.020495,0.579858,0.544384,-0.034174,0.569597,0.503537,-0.047687,0.561997,0.468439,-0.058559,0.634647,0.594573,-0.021182,0.634112,0.522913,-0.029305,0.632715,0.479997,-0.038113,0.63177,0.446276,-0.046708,0.668292,0.602777,-0.025308,0.681179,0.541337,-0.035055,0.688808,0.504009,-0.044971,0.694463,0.472645,-0.053409,0.696343,0.62705,-0.032181,0.722211,0.592423,-0.041073,0.73796,0.568172,-0.046072,0.749713,0.54502,-0.050444,1,0,0
162,'2026/05/06 10:37:45:331',1,0.655052,0.771155,0,0.602856,0.74661,-0.023283,0.554301,0.714283,-0.039461,0.514277,0.69445,-0.055532,0.479878,0.689816,-0.072731,0.598713,0.607297,-0.020245,0.579955,0.543823,-0.034096,0.569617,0.50353,-0.047764,0.56197,0.468862,-0.058628,0.634911,0.59334,-0.020902,0.634363,0.522702,-0.02886,0.632712,0.480255,-0.03775,0.631744,0.44636,-0.046311,0.668472,0.601416,-0.024973,0.681618,0.540807,-0.03434,0.688882,0.503729,-0.044133,0.694454,0.472278,-0.052466,0.696227,0.625688,-0.031809,0.721993,0.591772,-0.040364,0.737968,0.567781,-0.045179,0.750471,0.544738,-0.049342,1,0,0
163,'2026/05/06 10:37:45:374',1,0.655209,0.770043,0,0.603263,0.745566,-0.023368,0.554471,0.714355,-0.040086,0.513551,0.695478,-0.056589,0.478481,0.691217,-0.074324,0.598297,0.608606,-0.022307,0.579503,0.543849,-0.036398,0.569179,0.502335,-0.049945,0.561386,0.466996,-0.06081,0.634641,0.594723,-0.02304,0.633387,0.523715,-0.031579,0.632133,0.480229,-0.040922,0.631921,0.445316,-0.050034,0.668352,0.602759,-0.026974,0.680509,0.541723,-0.036682,0.687998,0.504075,-0.046964,0.694028,0.472124,-0.055951,0.696375,0.626846,-0.033607,0.721741,0.592686,-0.042787,0.738103,0.568606,-0.048154,0.751214,0.545726,-0.052859,1,0,0
164,'2026/05/06 10:37:45:409',1,0.655665,0.770916,0,0.603189,0.746522,-0.023664,0.554188,0.714963,-0.040297,0.513418,0.695648,-0.056701,0.478499,0.691002,-0.074309,0.598273,0.608548,-0.021681,0.57941,0.544443,-0.035257,0.569311,0.503506,-0.048571,0.562113,0.468356,-0.05933,0.634682,0.594549,-0.022179,0.633866,0.523278,-0.03022,0.632556,0.480395,-0.039058,0.632067,0.446434,-0.047765,0.668474,0.602438,-0.025996,0.681093,0.541121,-0.035586,0.688757,0.503653,-0.045669,0.694772,0.472177,-0.054357,0.696635,0.62635,-0.032556,0.722228,0.591493,-0.041478,0.738304,0.567265,-0.046596,0.750755,0.544275,-0.051092,1,0,0
165,'2026/05/06 10:37:45:441',1,0.656247,0.771365,0,0.604053,0.747823,-0.023962,0.554752,0.715302,-0.040444,0.513049,0.695081,-0.056635,0.477888,0.690785,-0.073914,0.598576,0.608649,-0.022007,0.579553,0.544245,-0.036238,0.569292,0.503056,-0.049887,0.561759,0.467994,-0.060719,0.6348,0.594379,-0.022369,0.634087,0.523957,-0.030518,0.632976,0.48092,-0.039188,0.632462,0.446579,-0.047651,0.668525,0.602262,-0.02613,0.681361,0.542069,-0.035542,0.688329,0.505225,-0.044966,0.693626,0.47374,-0.053113,0.696663,0.626509,-0.03275,0.722465,0.59256,-0.041455,0.738345,0.568157,-0.046232,0.750756,0.544785,-0.050351,1,0,0
166,'2026/05/06 10:37:45:471',1,0.656132,0.770155,0,0.6036,0.746609,-0.023599,0.554261,0.714365,-0.040039,0.512822,0.695085,-0.056297,0.477894,0.691273,-0.073677,0.598837,0.608322,-0.021723,0.579555,0.543909,-0.035693,0.569117,0.502769,-0.049128,0.561252,0.468055,-0.059751,0.63516,0.594038,-0.022077,0.634181,0.523607,-0.030006,0.632935,0.480049,-0.03865,0.63225,0.445629,-0.047108,0.668937,0.60187,-0.02577,0.681498,0.541388,-0.034919,0.688534,0.504471,-0.044403,0.693848,0.473326,-0.052619,0.697088,0.625967,-0.032264,0.722802,0.592194,-0.040769,0.73848,0.567865,-0.045564,0.750597,0.544893,-0.049681,1,0,0
167,'2026/05/06 10:37:45:503',1,0.655577,0.771795,0,0.603828,0.746929,-0.023505,0.555256,0.715069,-0.04022,0.515072,0.694854,-0.056796,0.480797,0.689102,-0.07445,0.598354,0.607872,-0.021243,0.579688,0.543972,-0.035462,0.569272,0.503211,-0.049294,0.561422,0.468416,-0.060272,0.634751,0.594008,-0.021961,0.634254,0.523029,-0.030338,0.63248,0.480101,-0.039328,0.631187,0.445923,-0.04801,0.668471,0.602,-0.026076,0.681316,0.540993,-0.03573,0.688897,0.503588,-0.045638,0.69458,0.472116,-0.054135,0.696297,0.62609,-0.032958,0.721746,0.591892,-0.041739,0.737572,0.568135,-0.046633,0.749707,0.545533,-0.050896,1,0,0
168,'2026/05/06 10:37:45:537',1,0.65648,0.771285,0,0.603568,0.748309,-0.023294,0.554107,0.714766,-0.039207,0.512594,0.6943,-0.054889,0.477526,0.690995,-0.071662,0.599079,0.608623,-0.020921,0.579629,0.544014,-0.034236,0.569268,0.503016,-0.047377,0.5619,0.468419,-0.057936,0.634949,0.594309,-0.021266,0.634034,0.522799,-0.028329,0.633444,0.480025,-0.036414,0.633396,0.44654,-0.044608,0.668563,0.602117,-0.024948,0.68184,0.540976,-0.033172,0.689416,0.504139,-0.042102,0.695129,0.47293,-0.050171,0.696885,0.626269,-0.031472,0.722782,0.591554,-0.039279,0.73849,0.566796,-0.043652,0.750835,0.543162,-0.047625,1,0,0
169,'2026/05/06 10:37:45:566',1,0.655794,0.771898,0,0.603623,0.747013,-0.023593,0.555026,0.714907,-0.040319,0.514794,0.694652,-0.056858,0.480249,0.68955,-0.07448,0.598422,0.608011,-0.021438,0.579918,0.543621,-0.035295,0.56947,0.502853,-0.048817,0.561575,0.46787,-0.059691,0.634856,0.594231,-0.021992,0.633731,0.523569,-0.030254,0.632006,0.481229,-0.039238,0.631117,0.447364,-0.047992,0.668719,0.602385,-0.025877,0.681102,0.540858,-0.035439,0.688658,0.503305,-0.045297,0.694603,0.471666,-0.05383,0.696855,0.62664,-0.032519,0.721998,0.591927,-0.041333,0.73768,0.567823,-0.046277,0.7499,0.544846,-0.050595,1,0,0
170,'2026/05/06 10:37:45:598',1,0.656338,0.77029,0,0.603548,0.747002,-0.023289,0.554527,0.714048,-0.039189,0.512698,0.6937,-0.054889,0.47724,0.6906,-0.071659,0.599,0.607805,-0.020409,0.579855,0.543426,-0.033655,0.56972,0.502765,-0.046797,0.562564,0.468364,-0.057354,0.635225,0.593874,-0.020693,0.634516,0.523318,-0.027523,0.634244,0.481022,-0.035601,0.634584,0.447775,-0.043851,0.669066,0.602031,-0.024386,0.681994,0.54207,-0.032552,0.689101,0.506522,-0.041453,0.694303,0.476346,-0.049453,0.697774,0.626318,-0.030949,0.723533,0.592175,-0.038734,0.738785,0.567671,-0.0432,0.750545,0.543952,-0.047222,1,0,0
171,'2026/05/06 10:37:45:630',1,0.656073,0.770552,0,0.603949,0.747333,-0.023531,0.555096,0.71477,-0.039431,0.513751,0.694714,-0.055147,0.478584,0.69087,-0.071964,0.599213,0.608483,-0.020423,0.580109,0.544161,-0.034129,0.569711,0.502901,-0.04756,0.562091,0.467798,-0.058225,0.635325,0.594407,-0.020732,0.63449,0.52454,-0.028435,0.633658,0.481709,-0.03705,0.633505,0.447481,-0.045476,0.66886,0.602228,-0.024475,0.681832,0.542153,-0.033596,0.68912,0.505147,-0.043029,0.694719,0.473691,-0.051163,0.696763,0.626134,-0.031038,0.722528,0.592348,-0.039604,0.738476,0.567893,-0.044409,0.750976,0.544516,-0.048518,1,0,0
172,'2026/05/06 10:37:45:665',1,0.655625,0.770258,0,0.603767,0.745577,-0.024048,0.554843,0.714118,-0.041213,0.513935,0.694375,-0.058166,0.47918,0.688819,-0.076243,0.598511,0.608159,-0.022452,0.579898,0.544004,-0.036668,0.569575,0.503141,-0.050324,0.561854,0.468144,-0.061275,0.634951,0.594401,-0.022972,0.634188,0.522688,-0.031765,0.632624,0.480155,-0.040918,0.631478,0.446726,-0.049787,0.668728,0.602703,-0.026827,0.681661,0.540814,-0.037028,0.689094,0.503507,-0.04696,0.694542,0.472244,-0.055434,0.696763,0.627271,-0.033433,0.722675,0.59226,-0.042634,0.738396,0.567863,-0.047637,0.750119,0.544608,-0.052009,1,0,0
173,'2026/05/06 10:37:45:695',1,0.656035,0.770718,0,0.603258,0.746662,-0.023818,0.554388,0.714597,-0.040367,0.514284,0.694198,-0.056687,0.479863,0.689271,-0.07414,0.598665,0.609318,-0.021731,0.580131,0.544685,-0.035733,0.569846,0.503745,-0.049354,0.561765,0.468736,-0.060223,0.635339,0.595257,-0.022117,0.634741,0.524102,-0.030433,0.632961,0.481092,-0.039628,0.631729,0.446496,-0.04853,0.669355,0.602987,-0.025829,0.681879,0.54141,-0.035362,0.68904,0.504066,-0.045321,0.694625,0.472467,-0.0539,0.697667,0.626747,-0.032324,0.723219,0.591778,-0.040975,0.739049,0.567758,-0.045863,0.751289,0.545114,-0.050169,1,0,0
174,'2026/05/06 10:37:45:727',1,0.655741,0.771278,0,0.604687,0.746163,-0.023796,0.556015,0.714902,-0.040857,0.51511,0.694112,-0.057817,0.480066,0.687505,-0.075712,0.598885,0.608338,-0.020789,0.579943,0.544631,-0.034791,0.569442,0.503776,-0.048528,0.561576,0.468989,-0.059406,0.635285,0.594149,-0.021137,0.63419,0.523415,-0.029131,0.632908,0.48098,-0.037788,0.631951,0.448217,-0.046271,0.66919,0.601946,-0.024923,0.681355,0.541164,-0.034197,0.68932,0.504811,-0.043435,0.695245,0.475071,-0.051357,0.697329,0.625976,-0.031558,0.722642,0.591352,-0.039857,0.738224,0.567405,-0.044255,0.749736,0.544978,-0.048091,1,0,0
175,'2026/05/06 10:37:45:778',1,0.656262,0.771546,0,0.603779,0.747682,-0.024035,0.554851,0.71554,-0.040785,0.51342,0.696198,-0.057256,0.478134,0.692273,-0.07488,0.599346,0.609042,-0.021996,0.580601,0.544911,-0.036063,0.570127,0.503883,-0.049625,0.562205,0.468724,-0.060439,0.635522,0.595077,-0.022437,0.634464,0.523781,-0.030945,0.632923,0.479882,-0.040112,0.632276,0.444564,-0.048962,0.668887,0.603251,-0.026221,0.681283,0.542337,-0.035993,0.688383,0.504616,-0.045982,0.69387,0.472459,-0.054553,0.696588,0.627421,-0.032793,0.721995,0.592773,-0.041675,0.738084,0.568526,-0.046636,0.750876,0.545345,-0.050977,1,0,0
176,'2026/05/06 10:37:45:818',1,0.655854,0.771027,0,0.603969,0.746798,-0.024482,0.555426,0.714849,-0.041419,0.51466,0.695032,-0.058046,0.479674,0.690222,-0.075762,0.59858,0.608779,-0.022033,0.580062,0.54506,-0.036318,0.570096,0.503818,-0.050041,0.562906,0.468432,-0.061065,0.634957,0.594703,-0.022471,0.634346,0.523385,-0.031383,0.6332,0.480387,-0.040493,0.632738,0.446229,-0.049195,0.668737,0.602536,-0.026396,0.681306,0.541525,-0.036849,0.689014,0.504094,-0.047019,0.695051,0.472228,-0.055541,0.69691,0.626413,-0.033143,0.722564,0.592103,-0.042612,0.738821,0.568325,-0.047861,0.751343,0.545532,-0.052351,1,0,0
177,'2026/05/06 10:37:45:847',1,0.656248,0.772978,0,0.605478,0.746918,-0.023234,0.55674,0.715341,-0.040281,0.515267,0.694331,-0.057421,0.479561,0.687623,-0.075513,0.59892,0.608705,-0.019938,0.579702,0.544143,-0.033814,0.569161,0.503017,-0.047622,0.561774,0.468367,-0.058593,0.635429,0.594609,-0.020719,0.634468,0.523276,-0.02847,0.633704,0.480292,-0.037085,0.633518,0.447465,-0.045639,0.669481,0.602467,-0.024968,0.681824,0.541052,-0.03396,0.690136,0.504359,-0.043315,0.696352,0.474657,-0.05146,0.698022,0.626487,-0.032049,0.72342,0.591747,-0.040071,0.738981,0.567951,-0.044431,0.750321,0.545834,-0.048369,1,0,0
178,'2026/05/06 10:37:45:882',1,0.655749,0.77054,0,0.604846,0.745853,-0.0237,0.556269,0.714616,-0.040714,0.515674,0.69401,-0.0576,0.480683,0.687648,-0.075548,0.599645,0.608585,-0.021609,0.580695,0.544688,-0.035584,0.570097,0.504088,-0.049276,0.562228,0.469187,-0.060242,0.635979,0.594692,-0.021988,0.63498,0.523925,-0.030342,0.633598,0.481425,-0.039318,0.632515,0.447833,-0.048143,0.669664,0.602735,-0.025674,0.682264,0.541423,-0.035287,0.690116,0.504254,-0.044952,0.695805,0.473304,-0.053308,0.697706,0.626912,-0.032131,0.723579,0.592188,-0.040774,0.739358,0.568188,-0.045539,0.750908,0.545466,-0.049768,1,0,0
179,'2026/05/06 10:37:45:908',1,0.656185,0.771269,0,0.604419,0.746983,-0.02348,0.555501,0.715282,-0.040003,0.515075,0.695045,-0.056323,0.48002,0.689675,-0.073804,0.599105,0.609022,-0.021312,0.580169,0.544262,-0.035069,0.569893,0.502877,-0.048511,0.562354,0.46773,-0.059295,0.635467,0.595079,-0.021849,0.634617,0.523147,-0.029966,0.633442,0.480223,-0.038779,0.632977,0.446642,-0.047445,0.669126,0.603139,-0.025727,0.681962,0.541104,-0.035375,0.689842,0.503249,-0.045414,0.695989,0.471667,-0.054101,0.697177,0.627246,-0.032321,0.722996,0.592434,-0.041365,0.739091,0.568287,-0.046516,0.751531,0.545395,-0.051031,1,0,0
180,'2026/05/06 10:37:45:940',1,0.655892,0.773122,0,0.604241,0.748415,-0.023229,0.555959,0.715942,-0.039514,0.516007,0.694733,-0.055739,0.48128,0.688556,-0.072956,0.59921,0.6081,-0.019826,0.580504,0.544185,-0.033341,0.570253,0.503394,-0.0467,0.562614,0.46852,-0.057413,0.635787,0.594198,-0.02042,0.634853,0.52236,-0.028202,0.63375,0.479736,-0.036605,0.632951,0.446854,-0.044873,0.6696,0.602556,-0.024477,0.68223,0.541725,-0.033785,0.690235,0.504734,-0.043267,0.696025,0.474119,-0.051388,0.697704,0.626983,-0.031294,0.723265,0.592601,-0.03979,0.738783,0.56862,-0.044539,0.750252,0.545833,-0.048684,1,0,0
181,'2026/05/06 10:37:45:970',1,0.655921,0.771393,0,0.603878,0.746771,-0.024078,0.555164,0.714844,-0.040917,0.514386,0.695038,-0.057513,0.479735,0.690142,-0.075252,0.598923,0.609029,-0.021913,0.58043,0.544414,-0.036144,0.570266,0.503202,-0.049879,0.562612,0.467943,-0.060838,0.635518,0.595132,-0.022396,0.635105,0.523551,-0.030991,0.63356,0.480347,-0.040091,0.632475,0.445841,-0.048858,0.669309,0.603192,-0.02628,0.682322,0.541505,-0.036258,0.68981,0.503838,-0.046214,0.695589,0.471774,-0.054736,0.697239,0.627232,-0.03296,0.722953,0.59299,-0.042173,0.739096,0.568881,-0.047253,0.751669,0.545729,-0.051631,1,0,0
182,'2026/05/06 10:37:46:002',1,0.655923,0.771008,0,0.60454,0.74618,-0.023592,0.555913,0.714636,-0.040555,0.515255,0.694076,-0.057437,0.480188,0.687847,-0.075365,0.598928,0.608305,-0.021242,0.58028,0.544124,-0.035338,0.569756,0.50328,-0.049063,0.561831,0.468468,-0.059956,0.635618,0.59449,-0.021892,0.635145,0.52318,-0.030233,0.633743,0.48087,-0.0391,0.632692,0.447794,-0.047634,0.669612,0.602627,-0.025895,0.682341,0.541025,-0.035571,0.690097,0.503765,-0.045024,0.696008,0.472738,-0.053059,0.697619,0.626823,-0.032682,0.723038,0.591983,-0.041358,0.738867,0.568124,-0.045791,0.750891,0.545608,-0.049622,1,0,0
183,'2026/05/06 10:37:46:034',1,0.654966,0.770284,0,0.603213,0.746029,-0.022907,0.554828,0.715093,-0.039218,0.51521,0.694841,-0.055544,0.480778,0.688871,-0.073014,0.599018,0.608636,-0.019873,0.580639,0.544685,-0.033375,0.570331,0.503755,-0.046977,0.56284,0.468701,-0.057898,0.635367,0.594835,-0.02069,0.634871,0.523547,-0.028436,0.633479,0.480636,-0.037371,0.632701,0.446866,-0.046144,0.669127,0.602796,-0.024837,0.682183,0.541239,-0.033976,0.690094,0.504037,-0.043708,0.696234,0.47318,-0.05217,0.697243,0.626756,-0.031721,0.723029,0.591872,-0.040215,0.739186,0.568056,-0.044887,0.751616,0.545692,-0.049019,1,0,0
184,'2026/05/06 10:37:46:066',1,0.656386,0.77215,0,0.604064,0.747567,-0.023915,0.55526,0.715331,-0.040699,0.514618,0.695149,-0.057287,0.479742,0.689814,-0.075023,0.599184,0.608768,-0.021628,0.580712,0.54439,-0.035729,0.570372,0.503484,-0.049533,0.562596,0.46822,-0.060628,0.635864,0.59493,-0.022125,0.635392,0.52331,-0.030419,0.633633,0.480503,-0.039329,0.632262,0.44647,-0.048095,0.669785,0.603041,-0.026029,0.682268,0.540914,-0.035557,0.689715,0.503172,-0.045277,0.695413,0.471421,-0.053811,0.69783,0.627278,-0.032773,0.723188,0.592689,-0.041596,0.738883,0.568634,-0.046539,0.750889,0.545784,-0.050955,1,0,0
185,'2026/05/06 10:37:46:096',1,0.65518,0.770602,0,0.604145,0.745485,-0.023175,0.555508,0.714405,-0.040098,0.514982,0.69383,-0.057033,0.479796,0.687339,-0.075106,0.59892,0.609106,-0.020926,0.580418,0.544807,-0.034973,0.570079,0.503529,-0.048863,0.56243,0.468508,-0.059945,0.63526,0.595012,-0.02167,0.634458,0.523356,-0.029909,0.633395,0.480519,-0.039052,0.632824,0.447156,-0.048019,0.669278,0.602604,-0.02571,0.681859,0.540572,-0.035121,0.689847,0.503536,-0.044963,0.695824,0.473223,-0.053519,0.697784,0.626438,-0.032505,0.723446,0.591789,-0.040984,0.739171,0.567805,-0.045712,0.75072,0.545509,-0.049951,1,0,0
186,'2026/05/06 10:37:46:129',1,0.655881,0.772514,0,0.60349,0.747824,-0.023434,0.554888,0.715537,-0.039907,0.514637,0.694701,-0.056222,0.479996,0.688423,-0.073593,0.599225,0.60827,-0.020556,0.580613,0.54421,-0.034072,0.570337,0.503396,-0.047543,0.562794,0.468309,-0.058399,0.635676,0.594177,-0.021035,0.634686,0.523182,-0.028862,0.633527,0.48037,-0.037522,0.633181,0.44661,-0.046089,0.669494,0.602316,-0.02491,0.681946,0.541379,-0.034133,0.690038,0.504545,-0.043717,0.696438,0.473786,-0.052061,0.697661,0.626516,-0.03157,0.723077,0.591869,-0.040101,0.738995,0.568113,-0.044878,0.751388,0.54558,-0.049094,1,0,0
187,'2026/05/06 10:37:46:174',1,0.655843,0.771722,0,0.603829,0.74712,-0.024184,0.554871,0.714895,-0.041128,0.513324,0.694741,-0.057872,0.478438,0.688861,-0.07569,0.599948,0.608675,-0.02163,0.581295,0.544378,-0.036139,0.570843,0.503455,-0.050249,0.562979,0.468414,-0.061414,0.636227,0.594558,-0.022024,0.635434,0.523563,-0.030595,0.633581,0.479979,-0.039819,0.632397,0.444813,-0.048695,0.669843,0.602452,-0.025881,0.682175,0.541303,-0.035357,0.689426,0.5042,-0.044854,0.695131,0.47255,-0.053124,0.697716,0.626471,-0.032641,0.723,0.592205,-0.041076,0.738853,0.568348,-0.045639,0.751226,0.54565,-0.049709,1,0,0
188,'2026/05/06 10:37:46:209',1,0.655556,0.770965,0,0.604061,0.746838,-0.023535,0.555882,0.715329,-0.040466,0.515892,0.694614,-0.057282,0.480969,0.688357,-0.075159,0.599084,0.60779,-0.021511,0.580482,0.543863,-0.035502,0.570159,0.502729,-0.049184,0.562646,0.46749,-0.06015,0.635797,0.594013,-0.022187,0.634966,0.523104,-0.030387,0.633881,0.480014,-0.039169,0.633408,0.446467,-0.047842,0.669793,0.602405,-0.026203,0.682364,0.541651,-0.035692,0.690529,0.504856,-0.045232,0.696663,0.474524,-0.053548,0.698008,0.626845,-0.033001,0.723479,0.592058,-0.041695,0.73925,0.56835,-0.04641,0.751133,0.546022,-0.050594,1,0,0
189,'2026/05/06 10:37:46:238',1,0.656091,0.771104,0,0.604374,0.747226,-0.024117,0.555704,0.715568,-0.040998,0.514295,0.69558,-0.057564,0.478783,0.690508,-0.075336,0.599284,0.609203,-0.022607,0.580542,0.544577,-0.036663,0.570192,0.503266,-0.050211,0.562429,0.467781,-0.061082,0.635625,0.595201,-0.022882,0.634719,0.524415,-0.031387,0.633175,0.481152,-0.040593,0.632442,0.446251,-0.049641,0.669295,0.603008,-0.026448,0.681692,0.542189,-0.03613,0.689226,0.504406,-0.04625,0.695172,0.472233,-0.055104,0.69719,0.626477,-0.032789,0.72257,0.591943,-0.041582,0.738841,0.568011,-0.046669,0.751707,0.545308,-0.051274,1,0,0
190,'2026/05/06 10:37:46:270',1,0.656336,0.7711,0,0.604887,0.746524,-0.024417,0.556113,0.715011,-0.041945,0.514002,0.694688,-0.059167,0.478566,0.688539,-0.077529,0.599017,0.609062,-0.02355,0.580523,0.544293,-0.038181,0.570283,0.503312,-0.05202,0.562612,0.467909,-0.063124,0.635544,0.595305,-0.024004,0.634961,0.523632,-0.033253,0.633347,0.481218,-0.042644,0.632268,0.447151,-0.051701,0.669304,0.603627,-0.027741,0.6817,0.541268,-0.038191,0.689102,0.503347,-0.048082,0.694728,0.47107,-0.056613,0.697124,0.627931,-0.034246,0.722724,0.592926,-0.043549,0.738632,0.568601,-0.048473,0.750776,0.545291,-0.052839,1,0,0
191,'2026/05/06 10:37:46:303',1,0.655801,0.772434,0,0.602799,0.748158,-0.023382,0.55371,0.715922,-0.039614,0.513554,0.694953,-0.055719,0.479323,0.688528,-0.072903,0.598782,0.608927,-0.020097,0.580081,0.544421,-0.03357,0.569759,0.50328,-0.047016,0.562191,0.468178,-0.057815,0.635306,0.595196,-0.020584,0.634931,0.523896,-0.028288,0.633369,0.480927,-0.036952,0.632349,0.447219,-0.04551,0.669182,0.603187,-0.024523,0.681935,0.541812,-0.03353,0.689607,0.504022,-0.043316,0.695533,0.472565,-0.051871,0.697289,0.627044,-0.031265,0.722806,0.592594,-0.039679,0.738582,0.568431,-0.044648,0.75071,0.545568,-0.049063,1,0,0
192,'2026/05/06 10:37:46:334',1,0.656465,0.772348,0,0.604808,0.747644,-0.023744,0.556061,0.714743,-0.040226,0.514533,0.694625,-0.056475,0.478947,0.690589,-0.073836,0.599282,0.609253,-0.021491,0.5806,0.544689,-0.035656,0.57039,0.503207,-0.049293,0.562747,0.468044,-0.0601,0.635438,0.595248,-0.02202,0.63451,0.523877,-0.030445,0.633195,0.480398,-0.039373,0.632663,0.4457,-0.047938,0.669199,0.603118,-0.025927,0.681798,0.541915,-0.035636,0.688838,0.504526,-0.045254,0.694258,0.473002,-0.053441,0.697411,0.627159,-0.032635,0.722781,0.592658,-0.041332,0.738719,0.568402,-0.045993,0.751099,0.545602,-0.050026,1,0,0
193,'2026/05/06 10:37:46:365',1,0.655283,0.772361,0,0.603198,0.747662,-0.02299,0.554894,0.715511,-0.038898,0.514893,0.695025,-0.054666,0.480153,0.689634,-0.07154,0.598827,0.608807,-0.019796,0.580109,0.544798,-0.032633,0.569897,0.503518,-0.045444,0.562347,0.468482,-0.055812,0.635395,0.595053,-0.02025,0.634463,0.52375,-0.027633,0.633234,0.480376,-0.036203,0.63272,0.446721,-0.044721,0.669312,0.603251,-0.024023,0.682194,0.542543,-0.032997,0.690136,0.505207,-0.042984,0.69617,0.474414,-0.051585,0.697383,0.627143,-0.030482,0.722802,0.592509,-0.038876,0.73861,0.568205,-0.043924,0.750764,0.545377,-0.048368,1,0,0
194,'2026/05/06 10:37:46:397',1,0.655767,0.771991,0,0.604404,0.74685,-0.02357,0.555925,0.714724,-0.040396,0.515515,0.694518,-0.057104,0.481091,0.688551,-0.074881,0.5992,0.608753,-0.021198,0.58097,0.544879,-0.03531,0.570662,0.504102,-0.049136,0.562943,0.469124,-0.060238,0.635665,0.594991,-0.02186,0.634995,0.523477,-0.030364,0.633589,0.480945,-0.039448,0.632659,0.447358,-0.048305,0.669466,0.603074,-0.02589,0.681865,0.541229,-0.035704,0.689714,0.50403,-0.045523,0.695671,0.472789,-0.054007,0.697638,0.627255,-0.032686,0.723347,0.592313,-0.04162,0.739097,0.568237,-0.046513,0.750905,0.545391,-0.050838,1,0,0
195,'2026/05/06 10:37:46:432',1,0.655985,0.77148,0,0.604427,0.747325,-0.024377,0.555875,0.715279,-0.041511,0.515332,0.694731,-0.058319,0.480824,0.688638,-0.076205,0.599278,0.608829,-0.022781,0.580569,0.544268,-0.037171,0.570292,0.50322,-0.050917,0.562744,0.467787,-0.061891,0.635881,0.59492,-0.023042,0.63513,0.52377,-0.031686,0.633712,0.481033,-0.040588,0.632861,0.447095,-0.049249,0.669664,0.602905,-0.026678,0.682067,0.541712,-0.036466,0.689628,0.504086,-0.046074,0.695585,0.472287,-0.054403,0.697623,0.626765,-0.033153,0.722768,0.59234,-0.042085,0.738558,0.568415,-0.046957,0.750901,0.545582,-0.051231,1,0,0
196,'2026/05/06 10:37:46:462',1,0.656684,0.77261,0,0.604395,0.74759,-0.023561,0.555578,0.715298,-0.039925,0.514914,0.694269,-0.055995,0.480373,0.687808,-0.073134,0.599457,0.608417,-0.021127,0.580873,0.544045,-0.034643,0.570698,0.502531,-0.047898,0.563068,0.467358,-0.058541,0.635927,0.594629,-0.021405,0.634863,0.522987,-0.0292,0.633822,0.480106,-0.037659,0.633493,0.446763,-0.046067,0.669773,0.602938,-0.02505,0.682305,0.541643,-0.034237,0.690295,0.504419,-0.043815,0.696515,0.47336,-0.05221,0.69792,0.627071,-0.031451,0.723172,0.592367,-0.040106,0.738949,0.568413,-0.045014,0.751217,0.545671,-0.049341,1,0,0
197,'2026/05/06 10:37:46:495',1,0.656094,0.771533,0,0.604058,0.746453,-0.023098,0.555577,0.714307,-0.039421,0.515877,0.693863,-0.055683,0.481427,0.687892,-0.073001,0.599908,0.60834,-0.020067,0.581221,0.54469,-0.033651,0.570949,0.503568,-0.047152,0.563447,0.468533,-0.05798,0.63634,0.59451,-0.02075,0.635213,0.523233,-0.028627,0.633725,0.480518,-0.037304,0.632897,0.447091,-0.045784,0.670246,0.60255,-0.024817,0.682581,0.541546,-0.034069,0.690474,0.504905,-0.043586,0.696468,0.47445,-0.051788,0.698381,0.626824,-0.03165,0.723776,0.592382,-0.040099,0.7395,0.568573,-0.044765,0.75133,0.546111,-0.048864,1,0,0
198,'2026/05/06 10:37:46:530',1,0.656212,0.772209,0,0.604458,0.74765,-0.024208,0.555804,0.715016,-0.041168,0.514846,0.694697,-0.057833,0.479763,0.689479,-0.075629,0.600161,0.609069,-0.02249,0.581644,0.544616,-0.036788,0.571481,0.503474,-0.050569,0.56383,0.468113,-0.061591,0.636373,0.595357,-0.022948,0.635748,0.523883,-0.031691,0.633925,0.480432,-0.041009,0.632681,0.445254,-0.049982,0.6699,0.60338,-0.026738,0.68252,0.542147,-0.036503,0.689638,0.504736,-0.046435,0.695135,0.472561,-0.055042,0.697749,0.627404,-0.033362,0.723322,0.592996,-0.042058,0.739509,0.569079,-0.046948,0.752161,0.546192,-0.051328,1,0,0
199,'2026/05/06 10:37:46:575',1,0.65625,0.772859,0,0.606254,0.746467,-0.023042,0.558265,0.71495,-0.039974,0.516924,0.694128,-0.056953,0.481277,0.687182,-0.074996,0.600275,0.609088,-0.02014,0.581033,0.544468,-0.034129,0.570538,0.50317,-0.047986,0.563119,0.467929,-0.059082,0.636619,0.594777,-0.020987,0.635408,0.523399,-0.029221,0.6346,0.48043,-0.038244,0.634168,0.447105,-0.047094,0.670306,0.602543,-0.025206,0.682586,0.541378,-0.03476,0.691082,0.504569,-0.044497,0.697429,0.474193,-0.052901,0.698354,0.626443,-0.032158,0.723751,0.592578,-0.040839,0.739606,0.568828,-0.045629,0.751287,0.546353,-0.049852,1,0,0
200,'2026/05/06 10:37:46:614',1,0.656343,0.772985,0,0.603986,0.747959,-0.022552,0.555709,0.714556,-0.038081,0.516257,0.693243,-0.053621,0.481868,0.68742,-0.070289,0.600236,0.608728,-0.018896,0.581755,0.544613,-0.032024,0.571531,0.503475,-0.045319,0.563869,0.468216,-0.056076,0.63672,0.594997,-0.019774,0.636291,0.522939,-0.027343,0.634623,0.47991,-0.036151,0.633381,0.445761,-0.044766,0.670515,0.603245,-0.023994,0.68338,0.541433,-0.033082,0.691179,0.504327,-0.042826,0.69704,0.472962,-0.051224,0.69846,0.627728,-0.030914,0.724189,0.592712,-0.03924,0.740023,0.568688,-0.043876,0.751953,0.5458,-0.048011,1,0,0
201,'2026/05/06 10:37:46:645',1,0.656027,0.772464,0,0.604332,0.747353,-0.023699,0.555765,0.714593,-0.040145,0.515519,0.693662,-0.056407,0.480823,0.688237,-0.073734,0.599964,0.607974,-0.020774,0.581271,0.54417,-0.034601,0.570984,0.503159,-0.048023,0.563405,0.468331,-0.058723,0.636592,0.594351,-0.021251,0.635986,0.522762,-0.029321,0.634686,0.479647,-0.037813,0.633853,0.446223,-0.046083,0.670494,0.602803,-0.025196,0.68329,0.542247,-0.034835,0.690942,0.505084,-0.044488,0.696748,0.474321,-0.052665,0.698496,0.627258,-0.031942,0.723942,0.593407,-0.040763,0.739692,0.569492,-0.045646,0.751768,0.546938,-0.049838,1,0,0
202,'2026/05/06 10:37:46:675',1,0.656631,0.772927,0,0.605803,0.747561,-0.023331,0.557405,0.715101,-0.039866,0.5175,0.69399,-0.056436,0.482915,0.688031,-0.074041,0.600644,0.608884,-0.020005,0.581634,0.54477,-0.034181,0.571326,0.503632,-0.04812,0.563802,0.468643,-0.059128,0.636936,0.594927,-0.020681,0.636046,0.523397,-0.028704,0.635051,0.480841,-0.037265,0.63429,0.448014,-0.045636,0.670837,0.602894,-0.024848,0.683242,0.541509,-0.034258,0.69136,0.504816,-0.043391,0.697548,0.474777,-0.051187,0.698974,0.62717,-0.031862,0.724376,0.592571,-0.040323,0.740057,0.568679,-0.044696,0.751776,0.546298,-0.048487,1,0,0
203,'2026/05/06 10:37:46:707',1,0.65697,0.772556,0,0.605664,0.747259,-0.02406,0.557428,0.7149,-0.040875,0.516067,0.69419,-0.057458,0.480935,0.687544,-0.075011,0.600095,0.608618,-0.021158,0.581789,0.54395,-0.035475,0.571461,0.502986,-0.049295,0.563654,0.467652,-0.060232,0.636604,0.594779,-0.021583,0.636057,0.523583,-0.030047,0.634357,0.481005,-0.038943,0.633043,0.446893,-0.047437,0.670461,0.602913,-0.025503,0.683068,0.541886,-0.035202,0.690727,0.50446,-0.044714,0.696629,0.472605,-0.052791,0.698461,0.626985,-0.032274,0.72407,0.59296,-0.040932,0.740046,0.568963,-0.045561,0.752399,0.545886,-0.049545,1,0,0
204,'2026/05/06 10:37:46:737',1,0.656508,0.774189,0,0.604607,0.748011,-0.023221,0.556273,0.714505,-0.039405,0.515802,0.693224,-0.055452,0.480912,0.687083,-0.072552,0.600537,0.608515,-0.020315,0.581855,0.54432,-0.034175,0.571602,0.502893,-0.047676,0.563988,0.467335,-0.058458,0.636906,0.594812,-0.021026,0.636074,0.523317,-0.029143,0.634902,0.480467,-0.037563,0.634257,0.446644,-0.045754,0.67059,0.603266,-0.025177,0.683331,0.542522,-0.0346,0.691347,0.50567,-0.043699,0.697516,0.474491,-0.051542,0.698473,0.627748,-0.032135,0.7239,0.593311,-0.040757,0.73975,0.569034,-0.045304,0.751969,0.545625,-0.049262,1,0,0
205,'2026/05/06 10:37:46:769',1,0.656472,0.771521,0,0.604347,0.746847,-0.023211,0.555903,0.71428,-0.039305,0.515768,0.693211,-0.055161,0.481198,0.687746,-0.07221,0.599939,0.609059,-0.020988,0.581764,0.544742,-0.034657,0.571771,0.503337,-0.04807,0.564226,0.468088,-0.058831,0.636479,0.59529,-0.02165,0.635884,0.523958,-0.029781,0.634379,0.480614,-0.038878,0.633542,0.44596,-0.047721,0.670326,0.603342,-0.025594,0.68311,0.542664,-0.035107,0.69087,0.50496,-0.045331,0.697011,0.473099,-0.05414,0.69824,0.627132,-0.032226,0.723595,0.592717,-0.040997,0.739868,0.56871,-0.046125,0.752725,0.545934,-0.050646,1,0,0
206,'2026/05/06 10:37:46:801',1,0.656444,0.772571,0,0.604385,0.747987,-0.023624,0.555677,0.714911,-0.039972,0.514846,0.694402,-0.056168,0.479887,0.689189,-0.073456,0.600286,0.60825,-0.020773,0.581673,0.543465,-0.034599,0.571409,0.502726,-0.048139,0.563599,0.467826,-0.058959,0.63689,0.594585,-0.021339,0.636303,0.523543,-0.029471,0.634389,0.480408,-0.038524,0.633011,0.445687,-0.047275,0.670715,0.60259,-0.025316,0.683081,0.541678,-0.034737,0.690452,0.504431,-0.044619,0.696172,0.472721,-0.053106,0.698696,0.626528,-0.032097,0.723745,0.592507,-0.040667,0.739583,0.568699,-0.045569,0.751868,0.546004,-0.049863,1,0,0
207,'2026/05/06 10:37:46:832',1,0.655855,0.770993,0,0.604371,0.746183,-0.023586,0.55601,0.713704,-0.040148,0.514789,0.693488,-0.056638,0.479769,0.688048,-0.074272,0.600306,0.608548,-0.02111,0.581609,0.544363,-0.035444,0.571354,0.50347,-0.049372,0.563936,0.468372,-0.060348,0.63614,0.594761,-0.021691,0.635508,0.523846,-0.030042,0.634125,0.480759,-0.039056,0.633371,0.446333,-0.047709,0.669719,0.602601,-0.025665,0.682401,0.541866,-0.034888,0.689419,0.505286,-0.044149,0.694926,0.474355,-0.052145,0.697714,0.626427,-0.032516,0.723302,0.59224,-0.040511,0.739214,0.568272,-0.044776,0.751617,0.545865,-0.048588,1,0,0
208,'2026/05/06 10:37:46:863',1,0.656419,0.773685,0,0.605055,0.748255,-0.023807,0.55689,0.715134,-0.040447,0.516146,0.693551,-0.05687,0.481408,0.686549,-0.0743,0.599568,0.608727,-0.020934,0.581421,0.544287,-0.035221,0.570895,0.503502,-0.049263,0.562818,0.468161,-0.060446,0.636076,0.594937,-0.021339,0.63533,0.523638,-0.029741,0.63382,0.481307,-0.038708,0.632698,0.447519,-0.047391,0.66991,0.603193,-0.025192,0.682377,0.541173,-0.034771,0.690351,0.503666,-0.044306,0.696558,0.472054,-0.052554,0.698003,0.62741,-0.031866,0.723328,0.592205,-0.040561,0.739186,0.568359,-0.045246,0.751431,0.545676,-0.049358,1,0,0
209,'2026/05/06 10:37:46:894',1,0.655745,0.770664,0,0.603773,0.746574,-0.02398,0.55547,0.714236,-0.040705,0.513696,0.69394,-0.057185,0.478267,0.689237,-0.074786,0.599452,0.608914,-0.021854,0.580457,0.544413,-0.036174,0.570107,0.502742,-0.04986,0.562521,0.467216,-0.060697,0.635657,0.594749,-0.022326,0.634576,0.523481,-0.030811,0.633552,0.479626,-0.039691,0.633363,0.444747,-0.048297,0.669209,0.60248,-0.026193,0.681205,0.541783,-0.035717,0.688218,0.504477,-0.045132,0.693777,0.472857,-0.0533,0.697183,0.626059,-0.032923,0.722451,0.591515,-0.041456,0.738714,0.567374,-0.046026,0.751773,0.544643,-0.050063,1,0,0
210,'2026/05/06 10:37:46:926',1,0.655475,0.770232,0,0.603362,0.746094,-0.023881,0.554532,0.714572,-0.040638,0.514101,0.694078,-0.057101,0.479219,0.688078,-0.074671,0.599276,0.608678,-0.021769,0.580787,0.544301,-0.035525,0.570541,0.503145,-0.049055,0.562813,0.467782,-0.059925,0.635617,0.594662,-0.021959,0.634626,0.52349,-0.030158,0.633303,0.480327,-0.039064,0.63271,0.446049,-0.047836,0.669297,0.602629,-0.025476,0.681624,0.541556,-0.034909,0.689455,0.504309,-0.044666,0.695629,0.47309,-0.053179,0.69733,0.62646,-0.031774,0.722627,0.591843,-0.040437,0.738516,0.567739,-0.045383,0.750833,0.544825,-0.049786,1,0,0
211,'2026/05/06 10:37:46:974',1,0.65535,0.771674,0,0.603982,0.746666,-0.023304,0.555545,0.714884,-0.039671,0.51533,0.693956,-0.055983,0.480476,0.687733,-0.073314,0.598547,0.608432,-0.020039,0.580217,0.544385,-0.033593,0.570202,0.503196,-0.046999,0.562617,0.468051,-0.057776,0.635236,0.594789,-0.020565,0.634345,0.523399,-0.028397,0.633192,0.480971,-0.036943,0.63224,0.44795,-0.045395,0.669252,0.603091,-0.024519,0.68175,0.541791,-0.033802,0.689794,0.504922,-0.043186,0.695577,0.474374,-0.051312,0.697475,0.627469,-0.03125,0.723089,0.593154,-0.039776,0.738463,0.569109,-0.04449,0.749583,0.54624,-0.048639,1,0,0
212,'2026/05/06 10:37:47:007',1,0.656223,0.772849,0,0.604193,0.747307,-0.02379,0.555579,0.714227,-0.040612,0.514989,0.692728,-0.057216,0.48015,0.686583,-0.074931,0.599733,0.609738,-0.022127,0.580849,0.544688,-0.03669,0.570195,0.503371,-0.050741,0.562084,0.467785,-0.06189,0.635992,0.595574,-0.022592,0.635408,0.524216,-0.031353,0.633626,0.481445,-0.040469,0.632377,0.447146,-0.049226,0.669637,0.603206,-0.026392,0.682477,0.541564,-0.036194,0.690078,0.5044,-0.045803,0.696027,0.473029,-0.054068,0.697396,0.626987,-0.032997,0.723045,0.592345,-0.041747,0.738939,0.568368,-0.0465,0.751177,0.545687,-0.050664,1,0,0
213,'2026/05/06 10:37:47:040',1,0.655472,0.772202,0,0.602963,0.74735,-0.023136,0.554514,0.714379,-0.038968,0.51337,0.693673,-0.05472,0.478434,0.688571,-0.071565,0.599001,0.608623,-0.019634,0.580553,0.543978,-0.032981,0.570391,0.5029,-0.046138,0.5629,0.467964,-0.056615,0.635414,0.594743,-0.020061,0.634696,0.523842,-0.027577,0.633367,0.480835,-0.036127,0.63259,0.446522,-0.044449,0.669194,0.602811,-0.023906,0.682003,0.542061,-0.032817,0.689455,0.504676,-0.042288,0.695136,0.473036,-0.0504,0.697186,0.626752,-0.030518,0.722917,0.592749,-0.038617,0.738842,0.5687,-0.04319,0.751184,0.545882,-0.047154,1,0,0
214,'2026/05/06 10:37:47:070',1,0.65558,0.771945,0,0.603986,0.747179,-0.023662,0.555184,0.714984,-0.04023,0.514135,0.693871,-0.056525,0.479144,0.687544,-0.073917,0.599276,0.608882,-0.021585,0.580654,0.544542,-0.03561,0.570432,0.503263,-0.049163,0.562731,0.467998,-0.059941,0.635701,0.594702,-0.021926,0.635148,0.522916,-0.030288,0.633956,0.479963,-0.039112,0.633395,0.446047,-0.047628,0.669353,0.602839,-0.025594,0.68216,0.541905,-0.035307,0.690027,0.504755,-0.045066,0.696126,0.473563,-0.053391,0.697132,0.626924,-0.031994,0.722711,0.592932,-0.040768,0.738742,0.569037,-0.045623,0.751151,0.546356,-0.049828,1,0,0
215,'2026/05/06 10:37:47:104',1,0.65605,0.770554,0,0.603494,0.746843,-0.023783,0.554535,0.714385,-0.040413,0.513143,0.693653,-0.056689,0.478001,0.689325,-0.074078,0.599662,0.608576,-0.022475,0.580623,0.544079,-0.036636,0.570436,0.502403,-0.05011,0.562937,0.467352,-0.060782,0.635644,0.594503,-0.022788,0.634441,0.523197,-0.031045,0.633555,0.479412,-0.039792,0.633572,0.444806,-0.04829,0.66899,0.602455,-0.026389,0.681869,0.542223,-0.0358,0.689419,0.505043,-0.045425,0.695188,0.473671,-0.053777,0.696826,0.626549,-0.032777,0.722623,0.592918,-0.041626,0.738609,0.568752,-0.046599,0.751175,0.545706,-0.050848,1,0,0
216,'2026/05/06 10:37:47:143',1,0.656096,0.771789,0,0.604058,0.747451,-0.023806,0.555254,0.71522,-0.040477,0.512994,0.694765,-0.056837,0.477371,0.689543,-0.074308,0.59921,0.609682,-0.022185,0.580699,0.545146,-0.036224,0.570449,0.50355,-0.049584,0.562734,0.468106,-0.060283,0.635382,0.595486,-0.022581,0.634324,0.524646,-0.031021,0.633089,0.480855,-0.040059,0.632904,0.445538,-0.048887,0.668878,0.603481,-0.026263,0.681397,0.542901,-0.03597,0.688912,0.505214,-0.045897,0.694875,0.473009,-0.05453,0.696563,0.627466,-0.032693,0.721931,0.593587,-0.041704,0.738028,0.569533,-0.046832,0.750874,0.546362,-0.051321,1,0,0
217,'2026/05/06 10:37:47:175',1,0.656189,0.772587,0,0.604095,0.747481,-0.023641,0.555422,0.714288,-0.04005,0.513751,0.693806,-0.056303,0.478507,0.688267,-0.073643,0.599244,0.609284,-0.020951,0.580893,0.544542,-0.035109,0.570502,0.503969,-0.048899,0.562704,0.469166,-0.059838,0.635486,0.595471,-0.021462,0.635087,0.524546,-0.02967,0.633395,0.481654,-0.038636,0.632286,0.447096,-0.047337,0.669192,0.603469,-0.025421,0.681668,0.541802,-0.03488,0.688694,0.504826,-0.044473,0.694251,0.473297,-0.052748,0.697208,0.627442,-0.032208,0.722801,0.592839,-0.040806,0.738731,0.568843,-0.045539,0.751219,0.54601,-0.049692,1,0,0
218,'2026/05/06 10:37:47:207',1,0.655543,0.771127,0,0.603452,0.747222,-0.023794,0.55502,0.715258,-0.040504,0.513375,0.694643,-0.056949,0.477841,0.689427,-0.074576,0.599064,0.609542,-0.022101,0.580289,0.545132,-0.036435,0.569966,0.50337,-0.050191,0.56244,0.467709,-0.06111,0.635157,0.595417,-0.022571,0.633753,0.524839,-0.031103,0.632847,0.481424,-0.040234,0.632953,0.446495,-0.049108,0.668737,0.603201,-0.026351,0.680787,0.543141,-0.035923,0.688211,0.505747,-0.045672,0.694157,0.473815,-0.054157,0.696646,0.626807,-0.032922,0.721682,0.59221,-0.041552,0.737824,0.568233,-0.04632,0.75073,0.545539,-0.050546,1,0,0
219,'2026/05/06 10:37:47:237',1,0.65525,0.77178,0,0.603108,0.74703,-0.023494,0.554398,0.714552,-0.039827,0.513928,0.693905,-0.056005,0.479303,0.688531,-0.073349,0.598554,0.609185,-0.02127,0.579942,0.54457,-0.035435,0.569857,0.503096,-0.049121,0.562379,0.467963,-0.059965,0.63508,0.59538,-0.021846,0.63462,0.524517,-0.030172,0.633227,0.481548,-0.039072,0.632407,0.447507,-0.04763,0.668959,0.60323,-0.025813,0.681552,0.542129,-0.035417,0.688698,0.504837,-0.045197,0.694352,0.47354,-0.053552,0.696976,0.627068,-0.032564,0.722241,0.592821,-0.041482,0.738117,0.568744,-0.046522,0.750679,0.546115,-0.050811,1,0,0
220,'2026/05/06 10:37:47:268',1,0.655018,0.770925,0,0.602802,0.746849,-0.02347,0.554313,0.715639,-0.040143,0.514221,0.694704,-0.056559,0.479353,0.687984,-0.07411,0.599165,0.609236,-0.021472,0.58049,0.545478,-0.035197,0.570313,0.50384,-0.048753,0.562997,0.467996,-0.059742,0.635445,0.595351,-0.022009,0.633963,0.524324,-0.030356,0.633134,0.481311,-0.039361,0.633234,0.447171,-0.048262,0.668917,0.603512,-0.025818,0.68124,0.54339,-0.035418,0.689486,0.506391,-0.045181,0.69602,0.475132,-0.053781,0.696776,0.627363,-0.032357,0.721987,0.592759,-0.041287,0.738147,0.56893,-0.046271,0.750921,0.546152,-0.050735,1,0,0
221,'2026/05/06 10:38:45:625',2,0.679772,0.709385,0,0.627761,0.679952,-0.021058,0.590397,0.620319,-0.031737,0.592467,0.55342,-0.042955,0.627466,0.531701,-0.048648,0.630287,0.567202,-0.001733,0.62168,0.526037,-0.026248,0.619706,0.577172,-0.033255,0.630032,0.591132,-0.0348,0.661956,0.568338,-0.001515,0.650985,0.533056,-0.030612,0.646395,0.598608,-0.029201,0.656762,0.60562,-0.020408,0.692445,0.571933,-0.007494,0.683174,0.53796,-0.038781,0.673295,0.60047,-0.026359,0.680814,0.610893,-0.008936,0.723631,0.582232,-0.015534,0.717153,0.5434,-0.030201,0.705081,0.586173,-0.019632,0.707004,0.603878,-0.007234,0,1,0
222,'2026/05/06 10:38:45:668',2,0.680194,0.708732,0,0.627477,0.679111,-0.018891,0.589613,0.620411,-0.028038,0.591572,0.553009,-0.03844,0.626336,0.53107,-0.04375,0.629511,0.567067,0.004813,0.621913,0.523898,-0.01952,0.6191,0.573792,-0.028098,0.628895,0.588934,-0.030572,0.661145,0.568024,0.004361,0.650016,0.531638,-0.024725,0.645822,0.596614,-0.025137,0.656419,0.605991,-0.017201,0.691821,0.571173,-0.002473,0.68192,0.537328,-0.034386,0.672447,0.600558,-0.024169,0.680395,0.613458,-0.007635,0.723163,0.58081,-0.011082,0.715262,0.542818,-0.026605,0.703431,0.587141,-0.017072,0.705814,0.606943,-0.004971,0,1,0
223,'2026/05/06 10:38:45:708',2,0.681137,0.711003,0,0.628332,0.680971,-0.020433,0.590444,0.620907,-0.030449,0.59218,0.552647,-0.040907,0.626787,0.53277,-0.045609,0.630521,0.566593,0.00038,0.623113,0.525373,-0.023379,0.620775,0.577306,-0.030644,0.630082,0.58881,-0.032814,0.662218,0.568169,0.000634,0.652011,0.532643,-0.027773,0.647276,0.599082,-0.026656,0.656924,0.603539,-0.018182,0.692689,0.571584,-0.005317,0.683647,0.537792,-0.03568,0.67401,0.600555,-0.023562,0.681942,0.609629,-0.006564,0.72425,0.581545,-0.013307,0.716895,0.544754,-0.027438,0.705278,0.58787,-0.017115,0.708124,0.604535,-0.004994,0,1,0
224,'2026/05/06 10:38:45:778',2,0.682777,0.70771,0,0.629727,0.681005,-0.020475,0.590766,0.621605,-0.029633,0.590642,0.553305,-0.03901,0.625127,0.529919,-0.042787,0.625678,0.568815,0.000467,0.617778,0.527061,-0.022738,0.618686,0.578547,-0.029793,0.627691,0.58772,-0.031977,0.658362,0.568783,0.000898,0.648945,0.532868,-0.026839,0.647973,0.597301,-0.026207,0.655322,0.600511,-0.018441,0.689692,0.571063,-0.004736,0.682856,0.537292,-0.035105,0.676161,0.59956,-0.023556,0.681202,0.606235,-0.007232,0.721644,0.579068,-0.012292,0.716888,0.544513,-0.026414,0.707045,0.588177,-0.016257,0.708008,0.602485,-0.004567,0,1,0
225,'2026/05/06 10:38:45:808',2,0.682777,0.70771,0,0.629727,0.681005,-0.020475,0.590766,0.621605,-0.029633,0.590642,0.553305,-0.03901,0.625127,0.529919,-0.042787,0.625678,0.568815,0.000467,0.617778,0.527061,-0.022738,0.618686,0.578547,-0.029793,0.627691,0.58772,-0.031977,0.658362,0.568783,0.000898,0.648945,0.532868,-0.026839,0.647973,0.597301,-0.026207,0.655322,0.600511,-0.018441,0.689692,0.571063,-0.004736,0.682856,0.537292,-0.035105,0.676161,0.59956,-0.023556,0.681202,0.606235,-0.007232,0.721644,0.579068,-0.012292,0.716888,0.544513,-0.026414,0.707045,0.588177,-0.016257,0.708008,0.602485,-0.004567,0,1,0
226,'2026/05/06 10:38:45:840',2,0.681705,0.710808,0,0.628535,0.679725,-0.018066,0.590116,0.621741,-0.026876,0.590487,0.554786,-0.037138,0.62469,0.530734,-0.042365,0.629021,0.570271,0.006233,0.619886,0.527052,-0.01783,0.618154,0.575951,-0.026901,0.628115,0.588177,-0.030027,0.660575,0.570522,0.005064,0.64794,0.53256,-0.023914,0.645535,0.59497,-0.024913,0.656972,0.602162,-0.017539,0.691535,0.573106,-0.002455,0.680501,0.536496,-0.03399,0.672821,0.5973,-0.023981,0.68181,0.608103,-0.007808,0.723926,0.582189,-0.011753,0.714397,0.543239,-0.026806,0.703366,0.586422,-0.017051,0.706863,0.605263,-0.004971,0,1,0
227,'2026/05/06 10:38:45:871',2,0.681319,0.70698,0,0.62837,0.680138,-0.017013,0.589742,0.620731,-0.024661,0.59107,0.552809,-0.03394,0.62567,0.531912,-0.038577,0.627166,0.570998,0.006723,0.616351,0.526928,-0.017307,0.616034,0.57454,-0.026501,0.625779,0.587117,-0.029538,0.659006,0.570507,0.005286,0.645787,0.532891,-0.023114,0.645108,0.594945,-0.023699,0.655333,0.602859,-0.015945,0.689794,0.572729,-0.002414,0.678964,0.536505,-0.033469,0.672736,0.598022,-0.023264,0.680177,0.609489,-0.00689,0.722065,0.581258,-0.011845,0.713321,0.543659,-0.026786,0.703558,0.586977,-0.017286,0.706117,0.60469,-0.005421,0,1,0
228,'2026/05/06 10:38:45:904',2,0.681943,0.708549,0,0.628245,0.678818,-0.017275,0.589877,0.620393,-0.025175,0.590784,0.551858,-0.034512,0.625282,0.532313,-0.038965,0.628858,0.569739,0.007739,0.619634,0.526564,-0.014928,0.618007,0.574559,-0.023753,0.627728,0.587481,-0.026841,0.660357,0.56977,0.006975,0.648907,0.532818,-0.020282,0.64644,0.595632,-0.021312,0.656216,0.603841,-0.01422,0.691176,0.571928,0.000062,0.681637,0.537286,-0.03002,0.673913,0.59793,-0.020542,0.681358,0.610525,-0.004905,0.723387,0.580408,-0.008533,0.715942,0.541927,-0.022844,0.704978,0.585195,-0.013271,0.707052,0.60501,-0.001365,0,1,0
229,'2026/05/06 10:38:45:949',2,0.681414,0.709351,0,0.628374,0.680758,-0.019356,0.58987,0.620493,-0.028993,0.591112,0.551548,-0.039282,0.62632,0.532566,-0.044123,0.628766,0.567288,0.000201,0.621904,0.525503,-0.023529,0.620325,0.576307,-0.030391,0.629107,0.589181,-0.032093,0.660918,0.56842,-0.000211,0.650886,0.532572,-0.028598,0.646961,0.597324,-0.027736,0.655435,0.603187,-0.019489,0.691769,0.572084,-0.006586,0.683359,0.538456,-0.037132,0.673933,0.600433,-0.025413,0.680024,0.609115,-0.008716,0.723288,0.582564,-0.014789,0.717186,0.54531,-0.028773,0.705539,0.58835,-0.018287,0.707099,0.604645,-0.00618,0,1,0
230,'2026/05/06 10:38:45:994',2,0.680137,0.70907,0,0.626862,0.679732,-0.02089,0.589562,0.619917,-0.03081,0.591902,0.553221,-0.04123,0.627193,0.530363,-0.046132,0.627387,0.566219,0.000945,0.619134,0.523378,-0.023971,0.616969,0.573833,-0.032452,0.627541,0.585853,-0.035072,0.659396,0.567303,0.001437,0.648479,0.531924,-0.027922,0.644607,0.597979,-0.02737,0.655928,0.603779,-0.0189,0.690589,0.570399,-0.004529,0.680889,0.538141,-0.036409,0.671641,0.601147,-0.02504,0.68086,0.610599,-0.007921,0.722937,0.579736,-0.012499,0.714776,0.543067,-0.027765,0.703132,0.587129,-0.017705,0.706338,0.604695,-0.005356,0,1,0
231,'2026/05/06 10:38:46:042',2,0.680444,0.708494,0,0.62742,0.681061,-0.020173,0.589207,0.620839,-0.029712,0.590801,0.552969,-0.039743,0.625098,0.530352,-0.044285,0.626084,0.568047,0.000218,0.617892,0.524698,-0.023856,0.616834,0.574634,-0.031149,0.626367,0.585954,-0.033142,0.658392,0.568644,0.000333,0.647127,0.53187,-0.028629,0.644638,0.597266,-0.027649,0.654779,0.602322,-0.01903,0.689839,0.571144,-0.005788,0.679918,0.537367,-0.036992,0.672282,0.60022,-0.025481,0.680409,0.608459,-0.008647,0.722559,0.579765,-0.013847,0.714527,0.544025,-0.028686,0.70409,0.587817,-0.018886,0.707056,0.603546,-0.007072,0,1,0
232,'2026/05/06 10:38:46:075',2,0.681359,0.711031,0,0.628327,0.68142,-0.022175,0.590029,0.621805,-0.032978,0.591043,0.553548,-0.043827,0.626247,0.531232,-0.048765,0.628118,0.566054,-0.000737,0.620135,0.524031,-0.024944,0.61824,0.574945,-0.031967,0.627485,0.589106,-0.033497,0.659929,0.566406,0.000638,0.6492,0.532343,-0.028322,0.645564,0.599072,-0.027448,0.654993,0.605331,-0.018802,0.690609,0.569322,-0.004343,0.681547,0.538435,-0.035714,0.672451,0.601138,-0.024152,0.679782,0.610637,-0.007052,0.722225,0.579156,-0.011384,0.715417,0.543775,-0.026176,0.703829,0.587495,-0.016191,0.705749,0.604087,-0.003991,0,1,0
233,'2026/05/06 10:38:46:110',2,0.680906,0.707893,0,0.626969,0.677523,-0.018275,0.589216,0.618909,-0.026861,0.59043,0.551568,-0.036849,0.625017,0.529153,-0.041687,0.629369,0.56896,0.00702,0.619908,0.524817,-0.017719,0.617761,0.573753,-0.0275,0.627241,0.587418,-0.030728,0.660145,0.570329,0.00642,0.647829,0.531687,-0.022994,0.644859,0.595027,-0.024548,0.655182,0.602611,-0.01729,0.690443,0.57308,-0.000604,0.680171,0.536067,-0.03228,0.671833,0.597497,-0.022407,0.67973,0.608827,-0.006002,0.722171,0.581571,-0.009438,0.713677,0.542502,-0.024213,0.70259,0.585347,-0.014417,0.705302,0.603905,-0.002149,0,1,0
234,'2026/05/06 10:38:46:140',2,0.67884,0.705947,0,0.626655,0.67952,-0.0212,0.588592,0.61994,-0.031429,0.590109,0.553004,-0.041569,0.624116,0.531237,-0.046066,0.626801,0.565883,-0.003536,0.620345,0.525092,-0.02724,0.619139,0.577095,-0.033624,0.627835,0.588351,-0.035283,0.659117,0.567337,-0.002997,0.649861,0.532249,-0.031255,0.646054,0.598608,-0.029578,0.65422,0.602727,-0.021048,0.690181,0.570767,-0.008387,0.682687,0.537684,-0.038809,0.67372,0.601282,-0.025894,0.67974,0.608643,-0.008764,0.721866,0.580667,-0.015796,0.716147,0.546079,-0.030304,0.704491,0.590646,-0.019703,0.705689,0.605268,-0.007653,0,1,0
235,'2026/05/06 10:38:46:178',2,0.679761,0.708742,0,0.626021,0.678746,-0.018238,0.588015,0.621149,-0.027482,0.589274,0.554623,-0.038299,0.623627,0.529264,-0.044422,0.626287,0.569108,0.005768,0.616625,0.526465,-0.019826,0.6158,0.574422,-0.030184,0.625556,0.588206,-0.033724,0.657797,0.569322,0.00446,0.644953,0.531778,-0.025375,0.643531,0.594202,-0.027038,0.654368,0.602176,-0.019862,0.688919,0.572043,-0.003287,0.677905,0.536284,-0.035903,0.671001,0.597928,-0.026242,0.67902,0.608981,-0.009947,0.721538,0.580975,-0.012775,0.712058,0.54294,-0.028517,0.702314,0.586808,-0.018803,0.705622,0.605034,-0.006542,0,1,0
236,'2026/05/06 10:38:46:216',2,0.678954,0.707323,0,0.625959,0.676895,-0.01943,0.588293,0.617036,-0.028731,0.590127,0.550481,-0.03864,0.62462,0.531324,-0.043152,0.628739,0.565082,0.000411,0.618348,0.523389,-0.023012,0.616275,0.572859,-0.030359,0.626741,0.584376,-0.032504,0.660387,0.566886,0.000308,0.648085,0.531535,-0.028212,0.644372,0.596655,-0.027406,0.655517,0.603352,-0.018997,0.691306,0.570179,-0.005792,0.680351,0.537125,-0.036364,0.67158,0.599273,-0.02501,0.680645,0.609746,-0.008263,0.722935,0.579742,-0.013794,0.714104,0.542731,-0.028417,0.703065,0.585627,-0.018591,0.706711,0.602862,-0.006614,0,1,0
237,'2026/05/06 10:38:46:247',2,0.678954,0.707323,0,0.625959,0.676895,-0.01943,0.588293,0.617036,-0.028731,0.590127,0.550481,-0.03864,0.62462,0.531324,-0.043152,0.628739,0.565082,0.000411,0.618348,0.523389,-0.023012,0.616275,0.572859,-0.030359,0.626741,0.584376,-0.032504,0.660387,0.566886,0.000308,0.648085,0.531535,-0.028212,0.644372,0.596655,-0.027406,0.655517,0.603352,-0.018997,0.691306,0.570179,-0.005792,0.680351,0.537125,-0.036364,0.67158,0.599273,-0.02501,0.680645,0.609746,-0.008263,0.722935,0.579742,-0.013794,0.714104,0.542731,-0.028417,0.703065,0.585627,-0.018591,0.706711,0.602862,-0.006614,0,1,0
238,'2026/05/06 10:38:46:279',2,0.678584,0.705844,0,0.625309,0.67496,-0.019063,0.58866,0.617182,-0.028321,0.589508,0.551671,-0.038959,0.623234,0.530378,-0.044718,0.626835,0.567017,0.005909,0.617011,0.524893,-0.02016,0.615079,0.572856,-0.030748,0.625648,0.586387,-0.034345,0.65787,0.56742,0.005112,0.645773,0.529919,-0.025535,0.642711,0.592923,-0.02726,0.654233,0.600809,-0.019667,0.688865,0.569757,-0.002305,0.678102,0.536268,-0.035108,0.670298,0.597058,-0.025564,0.67958,0.606973,-0.009017,0.721471,0.578035,-0.011602,0.71192,0.541398,-0.026809,0.701568,0.584323,-0.017021,0.705495,0.601394,-0.004647,0,1,0
239,'2026/05/06 10:38:46:310',2,0.678136,0.704947,0,0.625825,0.676192,-0.019101,0.588254,0.617616,-0.028492,0.589842,0.551528,-0.03866,0.624744,0.53042,-0.04358,0.628462,0.56602,0.001193,0.619055,0.524913,-0.022575,0.61685,0.573527,-0.030235,0.626768,0.585299,-0.03246,0.659696,0.567551,0.00081,0.646863,0.531758,-0.028257,0.643497,0.595657,-0.028033,0.654842,0.601872,-0.019799,0.690283,0.570506,-0.005605,0.678314,0.537392,-0.036869,0.670013,0.598887,-0.025989,0.67957,0.608358,-0.009348,0.722153,0.57969,-0.013803,0.711821,0.542122,-0.028694,0.701091,0.58541,-0.018706,0.705337,0.60287,-0.006503,0,1,0
240,'2026/05/06 10:38:46:340',2,0.678792,0.705027,0,0.626141,0.675903,-0.017788,0.588246,0.618331,-0.026859,0.589372,0.552179,-0.037182,0.623738,0.530217,-0.04261,0.625745,0.565586,0.003387,0.616749,0.524077,-0.02141,0.615531,0.572963,-0.030976,0.625262,0.586066,-0.034383,0.657347,0.566542,0.002158,0.645468,0.530213,-0.026641,0.64331,0.593987,-0.027364,0.653087,0.602528,-0.020077,0.688372,0.569486,-0.005145,0.677975,0.535262,-0.035895,0.670345,0.597492,-0.025155,0.677649,0.609153,-0.008887,0.720554,0.579064,-0.014222,0.71198,0.541976,-0.028698,0.701349,0.585457,-0.018617,0.703719,0.60332,-0.006562,0,1,0
241,'2026/05/06 10:38:46:371',2,0.679762,0.706302,0,0.626596,0.678651,-0.020068,0.588633,0.618023,-0.029738,0.590813,0.54969,-0.040052,0.625434,0.529491,-0.044845,0.628934,0.565035,0.000538,0.622264,0.521313,-0.024518,0.620248,0.573223,-0.032906,0.62891,0.588017,-0.035263,0.660199,0.56669,0.000622,0.650198,0.529998,-0.028669,0.646315,0.595486,-0.028536,0.655307,0.602756,-0.020434,0.690353,0.569708,-0.005521,0.681954,0.534944,-0.036539,0.672597,0.597603,-0.025051,0.679378,0.608159,-0.008166,0.721527,0.57884,-0.013662,0.714774,0.542271,-0.028223,0.703526,0.585391,-0.018268,0.705744,0.602536,-0.006217,0,1,0
242,'2026/05/06 10:38:46:402',2,0.682094,0.707771,0,0.627284,0.677663,-0.017903,0.588082,0.619442,-0.026496,0.589405,0.551225,-0.03655,0.623379,0.526276,-0.041798,0.625369,0.567706,0.007211,0.614399,0.52501,-0.017342,0.614518,0.573047,-0.027106,0.624907,0.586226,-0.030367,0.656969,0.566666,0.006009,0.643875,0.529748,-0.022807,0.643352,0.591808,-0.02427,0.653853,0.59896,-0.017085,0.688142,0.568457,-0.001581,0.677586,0.534379,-0.033702,0.671457,0.59577,-0.024301,0.679248,0.606367,-0.008229,0.720827,0.576471,-0.010862,0.711423,0.540134,-0.026404,0.70236,0.584094,-0.016791,0.705731,0.601689,-0.004569,0,1,0
243,'2026/05/06 10:38:46:433',2,0.678504,0.705322,0,0.625769,0.676746,-0.018835,0.588193,0.618285,-0.027875,0.589036,0.551601,-0.038022,0.622504,0.530033,-0.043019,0.627985,0.567204,0.004418,0.620528,0.523975,-0.02066,0.618286,0.572876,-0.030581,0.627013,0.586372,-0.033995,0.658987,0.568081,0.004084,0.647687,0.530923,-0.025406,0.644709,0.594695,-0.026764,0.654604,0.602647,-0.019383,0.689433,0.570028,-0.002591,0.679093,0.535749,-0.033741,0.67121,0.59703,-0.023982,0.679185,0.607853,-0.007934,0.721167,0.577693,-0.011125,0.712186,0.542256,-0.025691,0.702169,0.584741,-0.016455,0.705792,0.601731,-0.004744,0,1,0
244,'2026/05/06 10:38:46:464',2,0.679492,0.705085,0,0.626438,0.677523,-0.01882,0.58775,0.619817,-0.027898,0.588987,0.552174,-0.03803,0.623189,0.527952,-0.043298,0.624873,0.568505,0.004375,0.614888,0.52519,-0.019865,0.614961,0.573422,-0.028897,0.624515,0.586204,-0.031758,0.65697,0.567857,0.003866,0.644317,0.530567,-0.024769,0.644166,0.593636,-0.02565,0.653932,0.601147,-0.018186,0.688223,0.569584,-0.002893,0.678508,0.534697,-0.034643,0.672321,0.596854,-0.024795,0.679132,0.6079,-0.008614,0.720537,0.57739,-0.011366,0.712606,0.540325,-0.02684,0.703067,0.584897,-0.017301,0.705056,0.602903,-0.005292,0,1,0
245,'2026/05/06 10:38:46:512',2,0.677536,0.706914,0,0.625205,0.675163,-0.018156,0.588189,0.616945,-0.026798,0.589798,0.550641,-0.036832,0.623787,0.529032,-0.041738,0.628832,0.566483,0.006545,0.620006,0.523199,-0.017895,0.6172,0.572245,-0.02747,0.62667,0.584485,-0.03072,0.659539,0.567822,0.005816,0.64777,0.530402,-0.023366,0.643964,0.594307,-0.024563,0.654932,0.601305,-0.016964,0.690176,0.570269,-0.001299,0.679551,0.535871,-0.032327,0.67094,0.59702,-0.022549,0.68,0.607193,-0.006316,0.72238,0.578517,-0.010254,0.713284,0.541124,-0.024419,0.702293,0.583324,-0.014725,0.706101,0.600595,-0.002602,0,1,0
246,'2026/05/06 10:38:46:548',2,0.67941,0.702412,0,0.625733,0.67349,-0.016757,0.588053,0.617175,-0.024984,0.588957,0.550827,-0.03501,0.6232,0.527457,-0.040465,0.626708,0.56833,0.008984,0.617134,0.525486,-0.015249,0.616716,0.572636,-0.025427,0.625979,0.587012,-0.02894,0.658118,0.568355,0.007595,0.645939,0.531064,-0.020714,0.645176,0.592488,-0.023016,0.654668,0.600982,-0.016515,0.688988,0.570649,-0.000029,0.679197,0.534938,-0.030874,0.672717,0.595454,-0.021645,0.679412,0.607298,-0.005965,0.721215,0.579104,-0.009286,0.713146,0.541411,-0.023608,0.702775,0.584455,-0.013778,0.704648,0.602711,-0.001672,0,1,0
247,'2026/05/06 10:38:46:606',2,0.68082,0.706215,0,0.628243,0.676866,-0.020694,0.589979,0.616642,-0.031634,0.591647,0.548781,-0.043077,0.628593,0.527685,-0.049005,0.628071,0.563628,-0.001355,0.620917,0.520557,-0.027209,0.619424,0.571629,-0.036057,0.628865,0.586023,-0.038737,0.66036,0.565175,-0.001058,0.650546,0.530234,-0.030616,0.647046,0.59605,-0.030482,0.655402,0.602642,-0.022651,0.691275,0.568893,-0.006922,0.683975,0.535617,-0.038539,0.674163,0.598355,-0.026682,0.679495,0.608736,-0.009592,0.722713,0.579433,-0.014747,0.717726,0.54203,-0.029748,0.705405,0.586052,-0.019238,0.705419,0.604123,-0.006744,0,1,0
248,'2026/05/06 10:38:46:638',2,0.678245,0.70023,0,0.62654,0.672897,-0.01798,0.590097,0.615014,-0.026176,0.592175,0.549166,-0.035466,0.625969,0.52718,-0.039935,0.627432,0.566693,0.004188,0.617951,0.522835,-0.01947,0.616664,0.570518,-0.028238,0.626405,0.583248,-0.031119,0.659066,0.567154,0.003628,0.647935,0.528938,-0.0244,0.645584,0.591863,-0.025103,0.655274,0.600011,-0.017687,0.690162,0.569269,-0.002967,0.681087,0.53433,-0.033458,0.673383,0.595358,-0.023328,0.680797,0.606746,-0.007309,0.722732,0.577344,-0.011307,0.715829,0.539942,-0.025982,0.704927,0.582864,-0.016338,0.706676,0.600872,-0.004475,0,1,0
249,'2026/05/06 10:38:46:671',2,0.680943,0.701626,0,0.62733,0.673408,-0.01723,0.589385,0.615372,-0.025572,0.590613,0.548072,-0.035382,0.625612,0.526307,-0.040368,0.626446,0.566897,0.005655,0.618409,0.521431,-0.019155,0.617388,0.569884,-0.028947,0.625975,0.584803,-0.032148,0.658044,0.567754,0.004587,0.647534,0.528028,-0.024409,0.646144,0.591245,-0.025909,0.654305,0.601133,-0.01885,0.689115,0.569837,-0.002577,0.680947,0.532727,-0.033788,0.673918,0.594848,-0.023665,0.679394,0.608729,-0.007362,0.721324,0.577793,-0.01144,0.715503,0.540103,-0.026354,0.7053,0.583717,-0.016643,0.706021,0.602972,-0.004609,0,1,0
250,'2026/05/06 10:38:46:702',2,0.679357,0.703079,0,0.626644,0.674963,-0.018377,0.589551,0.615247,-0.026589,0.592095,0.547777,-0.035858,0.627024,0.527706,-0.040128,0.627621,0.566158,0.00385,0.619813,0.523051,-0.019716,0.617808,0.572424,-0.027988,0.6265,0.584596,-0.03063,0.659427,0.56682,0.003304,0.649138,0.529577,-0.025062,0.646153,0.593322,-0.025274,0.655173,0.600477,-0.017481,0.690475,0.569226,-0.003357,0.681972,0.533997,-0.034182,0.673641,0.595825,-0.023506,0.68019,0.606247,-0.007069,0.722726,0.577785,-0.011817,0.716349,0.54078,-0.02629,0.705029,0.584175,-0.016357,0.706328,0.601285,-0.004379,0,1,0
251,'2026/05/06 10:38:46:741',2,0.677005,0.700451,0,0.625668,0.672573,-0.018427,0.589725,0.61461,-0.027427,0.591651,0.549264,-0.037486,0.62592,0.528611,-0.042634,0.628153,0.566112,0.002509,0.620356,0.523034,-0.021733,0.617957,0.570528,-0.029965,0.626496,0.583631,-0.032229,0.659719,0.567302,0.002005,0.64898,0.530171,-0.026968,0.645671,0.593544,-0.027231,0.65501,0.601348,-0.01916,0.690889,0.569917,-0.00455,0.681123,0.535836,-0.035695,0.673227,0.596595,-0.025279,0.680671,0.60704,-0.008809,0.723159,0.578421,-0.012811,0.715328,0.540278,-0.027733,0.705151,0.583362,-0.01793,0.707982,0.601164,-0.005778,0,1,0
252,'2026/05/06 10:38:46:776',2,0.679694,0.705035,0,0.626413,0.674003,-0.017085,0.589484,0.616032,-0.024938,0.591243,0.549308,-0.034516,0.626052,0.526682,-0.039381,0.626882,0.568561,0.008919,0.617731,0.524971,-0.015112,0.61696,0.572744,-0.02478,0.626286,0.58489,-0.028065,0.658469,0.5686,0.007658,0.64664,0.530622,-0.020709,0.645599,0.592197,-0.022233,0.655932,0.599128,-0.015125,0.689554,0.57103,0.000009,0.679566,0.534942,-0.030777,0.673096,0.594879,-0.021251,0.680921,0.605635,-0.005312,0.722346,0.579541,-0.009388,0.713648,0.540956,-0.02348,0.703717,0.582796,-0.013755,0.706744,0.600462,-0.001799,0,1,0
253,'2026/05/06 10:38:46:809',2,0.678268,0.702049,0,0.625745,0.67408,-0.017734,0.588866,0.615792,-0.026073,0.591541,0.549955,-0.035578,0.626582,0.527793,-0.040184,0.626313,0.566523,0.003764,0.617693,0.522972,-0.020071,0.616234,0.570496,-0.028643,0.625877,0.583682,-0.031397,0.658079,0.567339,0.002921,0.646884,0.530053,-0.025458,0.644316,0.592934,-0.025943,0.654077,0.600931,-0.018377,0.689337,0.569994,-0.00394,0.67988,0.535632,-0.034581,0.671982,0.596429,-0.023969,0.679231,0.606987,-0.007665,0.721999,0.578917,-0.012529,0.715003,0.541025,-0.027187,0.704046,0.584102,-0.017226,0.70595,0.601786,-0.005147,0,1,0
254,'2026/05/06 10:38:46:845',2,0.67704,0.703154,0,0.624456,0.674138,-0.017311,0.58746,0.614953,-0.025526,0.590322,0.547776,-0.03522,0.626491,0.528103,-0.040073,0.626185,0.564814,0.005481,0.619099,0.521807,-0.019341,0.616937,0.571353,-0.029148,0.626259,0.584759,-0.032683,0.658311,0.566269,0.004177,0.648198,0.528946,-0.024487,0.644902,0.592447,-0.025216,0.65436,0.600567,-0.017836,0.689541,0.569592,-0.003346,0.681273,0.534352,-0.034277,0.672293,0.595881,-0.023495,0.678946,0.607131,-0.007002,0.721848,0.579413,-0.012636,0.715821,0.541012,-0.026967,0.703936,0.584459,-0.016571,0.705113,0.602938,-0.00426,0,1,0
255,'2026/05/06 10:38:46:868',2,0.676861,0.701547,0,0.624649,0.675881,-0.019407,0.587483,0.614919,-0.028261,0.590832,0.546257,-0.037705,0.627364,0.527181,-0.041867,0.625652,0.566974,-0.000129,0.619006,0.524633,-0.023424,0.617426,0.574782,-0.03005,0.626725,0.587619,-0.031747,0.657861,0.56643,-0.000204,0.648506,0.530223,-0.028555,0.64534,0.595104,-0.027479,0.654388,0.601354,-0.01913,0.689091,0.568137,-0.006173,0.681548,0.534129,-0.037388,0.672637,0.596783,-0.025443,0.67886,0.606487,-0.008407,0.721182,0.576698,-0.013961,0.715905,0.539907,-0.029062,0.704354,0.583838,-0.018796,0.705397,0.600885,-0.006699,0,1,0
256,'2026/05/06 10:38:46:900',2,0.676832,0.704004,0,0.62453,0.671968,-0.015923,0.588298,0.613689,-0.023585,0.590423,0.54744,-0.033248,0.625057,0.526029,-0.038175,0.627213,0.565678,0.009612,0.618782,0.520904,-0.015271,0.61645,0.568814,-0.025888,0.625146,0.58283,-0.029598,0.657782,0.566886,0.007858,0.646822,0.527447,-0.021183,0.643694,0.589634,-0.023276,0.653109,0.598611,-0.016241,0.688091,0.56957,-0.000195,0.678786,0.533534,-0.030954,0.670896,0.593592,-0.021551,0.678375,0.605362,-0.0055,0.72015,0.578323,-0.009914,0.71268,0.540075,-0.023869,0.702503,0.581484,-0.014104,0.705568,0.599149,-0.001911,0,1,0
257,'2026/05/06 10:38:46:948',2,0.678302,0.700837,0,0.625756,0.673125,-0.0184,0.588473,0.615153,-0.027518,0.590582,0.54842,-0.037791,0.625495,0.525741,-0.043214,0.627491,0.566212,0.003888,0.619003,0.522755,-0.020735,0.617635,0.571382,-0.030028,0.62706,0.584984,-0.033155,0.658903,0.566471,0.002944,0.646945,0.528475,-0.026406,0.64553,0.591912,-0.027394,0.655679,0.600573,-0.019923,0.689596,0.568797,-0.004176,0.680146,0.533527,-0.036056,0.673121,0.595293,-0.025727,0.680245,0.606609,-0.009287,0.72149,0.577648,-0.013032,0.714115,0.540108,-0.028513,0.703594,0.584396,-0.018652,0.705236,0.602664,-0.006499,0,1,0
258,'2026/05/06 10:38:46:978',2,0.678302,0.700837,0,0.625756,0.673125,-0.0184,0.588473,0.615153,-0.027518,0.590582,0.54842,-0.037791,0.625495,0.525741,-0.043214,0.627491,0.566212,0.003888,0.619003,0.522755,-0.020735,0.617635,0.571382,-0.030028,0.62706,0.584984,-0.033155,0.658903,0.566471,0.002944,0.646945,0.528475,-0.026406,0.64553,0.591912,-0.027394,0.655679,0.600573,-0.019923,0.689596,0.568797,-0.004176,0.680146,0.533527,-0.036056,0.673121,0.595293,-0.025727,0.680245,0.606609,-0.009287,0.72149,0.577648,-0.013032,0.714115,0.540108,-0.028513,0.703594,0.584396,-0.018652,0.705236,0.602664,-0.006499,0,1,0
259,'2026/05/06 10:38:47:008',2,0.676011,0.701444,0,0.624728,0.673026,-0.019448,0.58841,0.614765,-0.029089,0.590978,0.549094,-0.039531,0.625831,0.527418,-0.044928,0.626324,0.563956,0.001349,0.617122,0.521984,-0.022986,0.615576,0.570077,-0.031488,0.625796,0.581389,-0.034273,0.657868,0.564925,0.001074,0.646085,0.528265,-0.028145,0.643342,0.592885,-0.027989,0.65403,0.599609,-0.019784,0.68896,0.567708,-0.005356,0.678513,0.534261,-0.036885,0.670539,0.59665,-0.02607,0.678981,0.606471,-0.009459,0.72138,0.576544,-0.013626,0.712654,0.54022,-0.028883,0.702238,0.58363,-0.019187,0.705644,0.600509,-0.007227,0,1,0
260,'2026/05/06 10:38:47:040',2,0.677766,0.701972,0,0.625697,0.672993,-0.017756,0.588489,0.614097,-0.026569,0.590109,0.547089,-0.03655,0.625498,0.527356,-0.041593,0.627261,0.56555,0.002579,0.619138,0.522388,-0.021267,0.617668,0.571662,-0.029373,0.626633,0.585179,-0.031825,0.659088,0.566516,0.001573,0.647614,0.529783,-0.026451,0.64559,0.592628,-0.026362,0.655064,0.59989,-0.01871,0.690108,0.569113,-0.005373,0.680382,0.533642,-0.035953,0.673039,0.59505,-0.024976,0.680092,0.606418,-0.008631,0.721869,0.578079,-0.01403,0.714552,0.539609,-0.028829,0.704071,0.583311,-0.018722,0.706006,0.601907,-0.00664,0,1,0
261,'2026/05/06 10:38:47:072',2,0.67863,0.703635,0,0.626744,0.674672,-0.01722,0.588728,0.616938,-0.026196,0.590222,0.549576,-0.036579,0.625913,0.526961,-0.042028,0.627043,0.566523,0.004246,0.618565,0.523157,-0.019808,0.617759,0.572123,-0.028512,0.62822,0.585099,-0.03147,0.658991,0.566809,0.002903,0.647531,0.530483,-0.025038,0.646186,0.592955,-0.02498,0.656418,0.600177,-0.017394,0.689691,0.569458,-0.004493,0.680915,0.534321,-0.034711,0.673451,0.595439,-0.02353,0.680431,0.606614,-0.007144,0.72149,0.578817,-0.013638,0.715345,0.540926,-0.027764,0.704155,0.583947,-0.017544,0.705578,0.601938,-0.005506,0,1,0
262,'2026/05/06 10:38:47:103',2,0.677749,0.700872,0,0.625931,0.675209,-0.019433,0.588832,0.615508,-0.028455,0.590821,0.548334,-0.038065,0.625998,0.527585,-0.042345,0.625614,0.566551,0.00007,0.619322,0.522747,-0.023813,0.617461,0.572378,-0.031346,0.625831,0.585746,-0.03344,0.657419,0.567369,0.000304,0.648501,0.530764,-0.028183,0.645291,0.594978,-0.027773,0.653312,0.602182,-0.019676,0.688332,0.569438,-0.005434,0.681283,0.535395,-0.03605,0.672637,0.59713,-0.02477,0.678365,0.607106,-0.008142,0.720199,0.577271,-0.01301,0.71559,0.54153,-0.027584,0.704708,0.584567,-0.017787,0.705768,0.600932,-0.005974,0,1,0
263,'2026/05/06 10:38:47:141',2,0.677652,0.70078,0,0.625645,0.672619,-0.018027,0.588685,0.613975,-0.026258,0.590624,0.547763,-0.035678,0.624127,0.52743,-0.040457,0.627433,0.566615,0.003725,0.619529,0.522601,-0.020705,0.617078,0.57078,-0.029921,0.625959,0.584168,-0.032967,0.658895,0.567229,0.00294,0.649003,0.529241,-0.025616,0.645148,0.591479,-0.026527,0.653685,0.600132,-0.019173,0.689842,0.56939,-0.003925,0.681833,0.534081,-0.034931,0.673249,0.594917,-0.024649,0.679517,0.607355,-0.008372,0.722135,0.577631,-0.012543,0.715622,0.539335,-0.027592,0.7047,0.582582,-0.017704,0.706132,0.601543,-0.00554,0,1,0
264,'2026/05/06 10:38:47:166',2,0.679293,0.704453,0,0.626577,0.676296,-0.019267,0.589041,0.616446,-0.028133,0.591257,0.548771,-0.037829,0.626421,0.528759,-0.042094,0.627299,0.565956,0.00277,0.621065,0.52215,-0.021599,0.618245,0.57237,-0.030024,0.626798,0.58511,-0.032656,0.658804,0.567569,0.00271,0.649773,0.530206,-0.026597,0.64518,0.594872,-0.026901,0.653951,0.601503,-0.018972,0.689431,0.570163,-0.00356,0.681864,0.535185,-0.034743,0.6723,0.597034,-0.023634,0.679222,0.607053,-0.006762,0.721179,0.578574,-0.011729,0.715434,0.542224,-0.02625,0.703885,0.584856,-0.016234,0.705932,0.601434,-0.004057,0,1,0
265,'2026/05/06 10:38:47:199',2,0.679129,0.705183,0,0.626666,0.677386,-0.019314,0.589154,0.617442,-0.02838,0.591324,0.550716,-0.038026,0.62588,0.529326,-0.042219,0.627887,0.565577,0.000192,0.61939,0.523985,-0.022979,0.617768,0.573542,-0.0297,0.62761,0.585901,-0.031422,0.659581,0.566686,0.000024,0.647786,0.532012,-0.02837,0.644893,0.596784,-0.027303,0.655632,0.602957,-0.018746,0.690649,0.569516,-0.006144,0.679996,0.537265,-0.036911,0.67196,0.599341,-0.025398,0.680397,0.608149,-0.008636,0.72274,0.578388,-0.014134,0.714305,0.542559,-0.028858,0.703617,0.585697,-0.018893,0.70705,0.601543,-0.006919,0,1,0
266,'2026/05/06 10:38:47:230',2,0.677042,0.703097,0,0.624987,0.674814,-0.019011,0.588429,0.615771,-0.028253,0.590193,0.549931,-0.038261,0.624402,0.528774,-0.043169,0.62619,0.565307,0.00187,0.619152,0.522594,-0.022238,0.617274,0.571372,-0.030551,0.625575,0.584632,-0.033088,0.657921,0.566781,0.001619,0.64797,0.530272,-0.02703,0.645534,0.594428,-0.027394,0.654144,0.602091,-0.01976,0.68898,0.570067,-0.004664,0.68076,0.535953,-0.03547,0.673309,0.597814,-0.024642,0.679703,0.608439,-0.008242,0.720994,0.579552,-0.012737,0.714875,0.542188,-0.027341,0.704223,0.586146,-0.017257,0.705535,0.60371,-0.005164,0,1,0
267,'2026/05/06 10:38:47:265',2,0.677517,0.700893,0,0.626261,0.674809,-0.019127,0.58876,0.61685,-0.028535,0.589803,0.550567,-0.038557,0.623901,0.529249,-0.043418,0.625486,0.566592,-0.00089,0.617715,0.524312,-0.024545,0.617071,0.5736,-0.031696,0.626012,0.585653,-0.033635,0.65738,0.567403,-0.001228,0.646913,0.531173,-0.029555,0.645365,0.595106,-0.028749,0.654141,0.601535,-0.020563,0.688363,0.569669,-0.007379,0.680133,0.535438,-0.038175,0.673098,0.59765,-0.026445,0.679358,0.607771,-0.009663,0.720208,0.578038,-0.015319,0.714456,0.541265,-0.030392,0.704226,0.585509,-0.020207,0.705386,0.602817,-0.008109,0,1,0
268,'2026/05/06 10:38:47:293',2,0.67834,0.707226,0,0.62569,0.676773,-0.01902,0.588744,0.616304,-0.028464,0.591838,0.548802,-0.038913,0.627283,0.528545,-0.044039,0.627738,0.563203,0.002062,0.620443,0.520292,-0.023298,0.618293,0.571652,-0.032298,0.627556,0.587327,-0.034955,0.659682,0.565244,0.001572,0.649425,0.529963,-0.027852,0.645323,0.594965,-0.02826,0.654588,0.603161,-0.020582,0.690608,0.569036,-0.005129,0.681897,0.53505,-0.036516,0.672095,0.597427,-0.025396,0.678774,0.608906,-0.008623,0.722459,0.57925,-0.013696,0.715804,0.541439,-0.028428,0.703904,0.584939,-0.018221,0.705571,0.603213,-0.005854,0,1,0
269,'2026/05/06 10:38:47:342',2,0.678632,0.70404,0,0.626503,0.675765,-0.019764,0.588873,0.615724,-0.030002,0.591116,0.549042,-0.040705,0.626662,0.528155,-0.045975,0.627068,0.564354,-0.002402,0.619856,0.523569,-0.026987,0.619053,0.574335,-0.034284,0.628421,0.586132,-0.036362,0.65913,0.565873,-0.002856,0.648943,0.530165,-0.03195,0.646313,0.595496,-0.030784,0.655548,0.600573,-0.022421,0.690298,0.569006,-0.009237,0.6816,0.534934,-0.040326,0.673415,0.597839,-0.02786,0.680132,0.605942,-0.010807,0.722246,0.578426,-0.017505,0.715108,0.542638,-0.032266,0.704638,0.586561,-0.021785,0.707057,0.601706,-0.009732,0,1,0
270,'2026/05/06 10:38:47:366',2,0.678632,0.70404,0,0.626503,0.675765,-0.019764,0.588873,0.615724,-0.030002,0.591116,0.549042,-0.040705,0.626662,0.528155,-0.045975,0.627068,0.564354,-0.002402,0.619856,0.523569,-0.026987,0.619053,0.574335,-0.034284,0.628421,0.586132,-0.036362,0.65913,0.565873,-0.002856,0.648943,0.530165,-0.03195,0.646313,0.595496,-0.030784,0.655548,0.600573,-0.022421,0.690298,0.569006,-0.009237,0.6816,0.534934,-0.040326,0.673415,0.597839,-0.02786,0.680132,0.605942,-0.010807,0.722246,0.578426,-0.017505,0.715108,0.542638,-0.032266,0.704638,0.586561,-0.021785,0.707057,0.601706,-0.009732,0,1,0
271,'2026/05/06 10:38:47:406',2,0.677557,0.705241,0,0.625009,0.674579,-0.018887,0.588343,0.615346,-0.028188,0.590958,0.548783,-0.038506,0.625821,0.528676,-0.043802,0.628604,0.56483,0.002636,0.619165,0.521124,-0.021209,0.616527,0.56937,-0.029264,0.626944,0.584518,-0.031442,0.660452,0.565799,0.002377,0.648245,0.529045,-0.026232,0.644001,0.592579,-0.026271,0.654842,0.602927,-0.018153,0.69139,0.569296,-0.004015,0.680063,0.535345,-0.034926,0.670826,0.596585,-0.024809,0.679499,0.609848,-0.008528,0.723271,0.579432,-0.012177,0.71373,0.540881,-0.027107,0.702483,0.582991,-0.017932,0.706066,0.602169,-0.006174,0,1,0
272,'2026/05/06 10:38:47:445',2,0.679604,0.704431,0,0.625886,0.674418,-0.01735,0.588369,0.616668,-0.025365,0.590373,0.550226,-0.034789,0.624847,0.525634,-0.039431,0.625108,0.567853,0.00599,0.615452,0.525099,-0.018363,0.61562,0.57339,-0.028093,0.62524,0.585157,-0.031645,0.656919,0.567812,0.00473,0.644403,0.530565,-0.023842,0.644318,0.592756,-0.02522,0.654804,0.599272,-0.018335,0.688206,0.569574,-0.002698,0.677845,0.534275,-0.033817,0.672068,0.595546,-0.023701,0.680051,0.605907,-0.00765,0.721174,0.57758,-0.011867,0.712266,0.540041,-0.026814,0.702661,0.583557,-0.016963,0.705591,0.601083,-0.004927,0,1,0
273,'2026/05/06 10:38:47:476',2,0.677196,0.706523,0,0.625162,0.677405,-0.018577,0.588657,0.616336,-0.027421,0.591202,0.548744,-0.037182,0.626082,0.52664,-0.041595,0.628008,0.565355,0.002098,0.620352,0.521726,-0.021824,0.618666,0.572312,-0.029295,0.62817,0.586212,-0.031298,0.659815,0.566403,0.001365,0.648773,0.529002,-0.02723,0.645565,0.594614,-0.026295,0.655993,0.602189,-0.017727,0.690523,0.56984,-0.005501,0.681566,0.534629,-0.036311,0.672477,0.597334,-0.024254,0.679997,0.607782,-0.007088,0.722414,0.579995,-0.014223,0.715903,0.542026,-0.028712,0.703604,0.585629,-0.018239,0.705415,0.602788,-0.005963,0,1,0
274,'2026/05/06 10:38:47:507',2,0.679097,0.704069,0,0.626049,0.675291,-0.016935,0.588063,0.616779,-0.025557,0.589623,0.549131,-0.035792,0.624993,0.527705,-0.041286,0.626535,0.567371,0.005926,0.61825,0.522282,-0.01848,0.616763,0.569721,-0.02796,0.625804,0.584651,-0.031039,0.658441,0.567928,0.00469,0.646787,0.530135,-0.023535,0.644998,0.592349,-0.024417,0.654147,0.601629,-0.017065,0.689232,0.570703,-0.002694,0.679644,0.534575,-0.033109,0.672181,0.595573,-0.023038,0.678692,0.60831,-0.007009,0.721219,0.579991,-0.011744,0.714133,0.541203,-0.026024,0.703662,0.583772,-0.016388,0.705333,0.602491,-0.004527,0,1,0
275,'2026/05/06 10:38:47:538',2,0.676116,0.707095,0,0.624644,0.676149,-0.020951,0.58814,0.615683,-0.031873,0.591078,0.548665,-0.043174,0.627813,0.528196,-0.049007,0.627184,0.563988,-0.002557,0.620146,0.522101,-0.027206,0.61775,0.573002,-0.034411,0.627039,0.587543,-0.036066,0.659514,0.565616,-0.00211,0.649695,0.530663,-0.030904,0.644967,0.595916,-0.029785,0.654148,0.603132,-0.021342,0.690706,0.569633,-0.007738,0.682188,0.53611,-0.038804,0.67183,0.598077,-0.026976,0.678417,0.608971,-0.010033,0.722328,0.580352,-0.015295,0.716156,0.541667,-0.030185,0.704069,0.584725,-0.019964,0.705656,0.603088,-0.007748,0,1,0
276,'2026/05/06 10:38:47:570',2,0.678363,0.704719,0,0.624542,0.674793,-0.019314,0.587792,0.616249,-0.028512,0.590426,0.549011,-0.038653,0.625758,0.528108,-0.043402,0.628491,0.565864,0.004462,0.621288,0.522556,-0.019187,0.618429,0.572038,-0.027587,0.627756,0.585143,-0.030262,0.660116,0.567034,0.004542,0.649586,0.53054,-0.024011,0.645541,0.594788,-0.024703,0.655213,0.601954,-0.017173,0.690706,0.570061,-0.001623,0.681551,0.535494,-0.032494,0.672496,0.597128,-0.022119,0.680211,0.608424,-0.005728,0.722163,0.579371,-0.009658,0.715103,0.54159,-0.024296,0.703534,0.584333,-0.014613,0.705743,0.602595,-0.002554,0,1,0
277,'2026/05/06 10:38:47:601',2,0.681062,0.704782,0,0.627052,0.676348,-0.017525,0.588749,0.617826,-0.026045,0.590012,0.550359,-0.035799,0.624724,0.527616,-0.040494,0.627113,0.568828,0.006014,0.617584,0.525293,-0.018172,0.617236,0.573774,-0.027658,0.62682,0.586366,-0.03093,0.658732,0.568974,0.005188,0.64583,0.531921,-0.02325,0.645369,0.594817,-0.02443,0.655827,0.600977,-0.017215,0.689524,0.570467,-0.001805,0.679458,0.535459,-0.032497,0.67297,0.596678,-0.022638,0.680855,0.606863,-0.006688,0.721733,0.577766,-0.010497,0.713561,0.540865,-0.025001,0.703475,0.584484,-0.015345,0.706024,0.602312,-0.003365,0,1,0
278,'2026/05/06 10:38:47:630',2,0.677933,0.704756,0,0.625638,0.676256,-0.018364,0.588239,0.615812,-0.027004,0.590231,0.547926,-0.036597,0.624556,0.529417,-0.040948,0.628251,0.56545,0.002564,0.619917,0.521388,-0.021052,0.616946,0.571241,-0.029143,0.626321,0.58364,-0.031801,0.659555,0.566722,0.001995,0.648337,0.529552,-0.026364,0.644196,0.593677,-0.026037,0.654235,0.600814,-0.018004,0.68994,0.569534,-0.004632,0.680277,0.534297,-0.035113,0.67118,0.596446,-0.023997,0.679178,0.607881,-0.007462,0.721564,0.578362,-0.013104,0.713833,0.542086,-0.027788,0.70236,0.585312,-0.018134,0.705194,0.603171,-0.00632,0,1,0
279,'2026/05/06 10:38:47:663',2,0.677512,0.704922,0,0.624487,0.674835,-0.017802,0.58747,0.615436,-0.02654,0.589691,0.5482,-0.036666,0.624806,0.529164,-0.041843,0.628209,0.565598,0.004903,0.619522,0.522537,-0.019499,0.616704,0.570935,-0.028556,0.626016,0.585009,-0.031469,0.659536,0.566873,0.003891,0.647312,0.529689,-0.025258,0.643553,0.593002,-0.025982,0.654127,0.60123,-0.018297,0.690317,0.569989,-0.003327,0.678839,0.535471,-0.034685,0.670265,0.596465,-0.024465,0.678715,0.607806,-0.008111,0.722201,0.579445,-0.012268,0.711944,0.541541,-0.027189,0.701434,0.584543,-0.017468,0.705603,0.602955,-0.005382,0,1,0
280,'2026/05/06 10:38:47:698',2,0.677156,0.704094,0,0.624181,0.673388,-0.01721,0.587045,0.614409,-0.025271,0.589586,0.546903,-0.034911,0.624914,0.527838,-0.039961,0.625929,0.566998,0.006733,0.617825,0.52149,-0.017674,0.615241,0.569345,-0.027342,0.624227,0.584221,-0.030412,0.657539,0.567926,0.005854,0.64743,0.528714,-0.022728,0.643862,0.590759,-0.024314,0.652646,0.600966,-0.01722,0.688888,0.570355,-0.001185,0.68045,0.53373,-0.032238,0.672035,0.594288,-0.022982,0.678549,0.608361,-0.007131,0.721397,0.578928,-0.009888,0.714653,0.539297,-0.025025,0.704077,0.582693,-0.015752,0.706052,0.6031,-0.003829,0,1,0
281,'2026/05/06 10:38:47:743',2,0.677046,0.703623,0,0.623827,0.674048,-0.017102,0.587166,0.614485,-0.024824,0.590387,0.547543,-0.033963,0.625146,0.528899,-0.03819,0.628793,0.564658,0.006352,0.620359,0.523234,-0.01638,0.617399,0.571493,-0.02466,0.626617,0.585929,-0.027229,0.659819,0.565592,0.005288,0.647533,0.530285,-0.022552,0.644106,0.59292,-0.023429,0.655177,0.601826,-0.016093,0.690625,0.568504,-0.001805,0.679278,0.535263,-0.032373,0.670934,0.595736,-0.0229,0.679761,0.608061,-0.007176,0.722644,0.577722,-0.010519,0.71298,0.539434,-0.025256,0.702056,0.582257,-0.01578,0.705764,0.601754,-0.003852,0,1,0
282,'2026/05/06 10:38:47:772',2,0.677046,0.703623,0,0.623827,0.674048,-0.017102,0.587166,0.614485,-0.024824,0.590387,0.547543,-0.033963,0.625146,0.528899,-0.03819,0.628793,0.564658,0.006352,0.620359,0.523234,-0.01638,0.617399,0.571493,-0.02466,0.626617,0.585929,-0.027229,0.659819,0.565592,0.005288,0.647533,0.530285,-0.022552,0.644106,0.59292,-0.023429,0.655177,0.601826,-0.016093,0.690625,0.568504,-0.001805,0.679278,0.535263,-0.032373,0.670934,0.595736,-0.0229,0.679761,0.608061,-0.007176,0.722644,0.577722,-0.010519,0.71298,0.539434,-0.025256,0.702056,0.582257,-0.01578,0.705764,0.601754,-0.003852,0,1,0
283,'2026/05/06 10:38:47:807',2,0.677087,0.69999,0,0.624777,0.670704,-0.017535,0.58837,0.613888,-0.026224,0.59065,0.548119,-0.036067,0.624644,0.52649,-0.040917,0.628168,0.564652,0.003778,0.620146,0.522142,-0.019359,0.617881,0.569864,-0.027446,0.626328,0.584515,-0.029806,0.6593,0.56588,0.002966,0.648244,0.528538,-0.024639,0.645143,0.590468,-0.025289,0.654012,0.600217,-0.018129,0.68965,0.568953,-0.003712,0.680198,0.53263,-0.03348,0.671965,0.59317,-0.023106,0.678325,0.606912,-0.007259,0.721004,0.578581,-0.012086,0.713868,0.539573,-0.026391,0.702801,0.582058,-0.016684,0.704352,0.601575,-0.004905,0,1,0
284,'2026/05/06 10:38:47:839',2,0.678796,0.703882,0,0.625472,0.672456,-0.017194,0.588688,0.614178,-0.025381,0.590295,0.545792,-0.035217,0.625803,0.52578,-0.040271,0.627738,0.566642,0.009192,0.618472,0.521297,-0.014628,0.616413,0.568455,-0.024424,0.626065,0.583896,-0.027592,0.658875,0.566455,0.008387,0.646879,0.527663,-0.019605,0.644585,0.589631,-0.021254,0.655121,0.599961,-0.014096,0.689463,0.568602,0.001243,0.679782,0.532003,-0.029395,0.672101,0.591956,-0.020422,0.679848,0.606416,-0.00463,0.721415,0.577204,-0.007602,0.713957,0.537293,-0.022238,0.702884,0.579648,-0.012989,0.704977,0.600454,-0.001017,0,1,0
285,'2026/05/06 10:38:47:875',2,0.677682,0.700462,0,0.624387,0.669864,-0.016319,0.58806,0.613139,-0.024234,0.58911,0.547155,-0.034182,0.622688,0.525085,-0.039762,0.627751,0.566481,0.009062,0.619201,0.52214,-0.015472,0.617454,0.56904,-0.026115,0.626313,0.584718,-0.029769,0.658567,0.56709,0.007489,0.64729,0.528397,-0.020786,0.644694,0.588919,-0.02329,0.654133,0.599052,-0.016912,0.689232,0.569105,-0.000302,0.679921,0.532118,-0.030838,0.67227,0.591627,-0.021843,0.679177,0.606005,-0.006228,0.72144,0.577196,-0.009769,0.713868,0.536987,-0.024023,0.703218,0.57892,-0.014241,0.705181,0.599567,-0.002058,0,1,0
286,'2026/05/06 10:38:47:901',2,0.677215,0.70038,0,0.624417,0.670582,-0.01699,0.58754,0.612351,-0.025243,0.58973,0.544792,-0.035103,0.625547,0.525008,-0.040103,0.628011,0.564673,0.006528,0.619299,0.520942,-0.017732,0.616767,0.568718,-0.027085,0.625952,0.58321,-0.030112,0.65903,0.565235,0.005317,0.646989,0.527304,-0.023594,0.644095,0.589425,-0.024736,0.654338,0.59888,-0.017278,0.689479,0.567513,-0.00203,0.679041,0.531763,-0.032957,0.670841,0.592349,-0.022934,0.678651,0.604853,-0.006653,0.721203,0.576383,-0.011083,0.712784,0.538281,-0.025608,0.702009,0.580749,-0.015933,0.705107,0.599496,-0.003858,0,1,0
287,'2026/05/06 10:38:47:933',2,0.677708,0.700326,0,0.624345,0.668853,-0.016385,0.587951,0.612261,-0.023978,0.589439,0.545514,-0.033538,0.623342,0.525386,-0.03843,0.62842,0.5661,0.010456,0.62067,0.520299,-0.014302,0.617795,0.567555,-0.025368,0.62597,0.584413,-0.029164,0.658998,0.566333,0.00922,0.648494,0.527573,-0.019289,0.645413,0.58797,-0.022349,0.654363,0.598951,-0.016213,0.689345,0.567673,0.001644,0.680898,0.531838,-0.02854,0.673093,0.590298,-0.020139,0.679784,0.604467,-0.004912,0.721316,0.574921,-0.007678,0.714679,0.536381,-0.02132,0.704063,0.577543,-0.011945,0.705912,0.597181,-0.000092,0,1,0
288,'2026/05/06 10:38:47:965',2,0.67954,0.704422,0,0.624914,0.670622,-0.017757,0.587736,0.61436,-0.026024,0.589166,0.547102,-0.035876,0.623394,0.525452,-0.040663,0.627097,0.564198,0.010878,0.617953,0.519341,-0.013307,0.615238,0.567229,-0.024052,0.624723,0.582829,-0.02766,0.65779,0.56373,0.010381,0.647437,0.52567,-0.017653,0.64355,0.587035,-0.020437,0.653432,0.597601,-0.013883,0.687958,0.565196,0.003392,0.679827,0.530913,-0.026521,0.670963,0.589591,-0.018107,0.678231,0.603675,-0.00258,0.720055,0.572978,-0.005448,0.713926,0.534997,-0.01829,0.702469,0.5758,-0.008435,0.704522,0.595373,0.003964,0,1,0
289,'2026/05/06 10:38:47:999',2,0.677917,0.705365,0,0.623229,0.671128,-0.016466,0.586891,0.612952,-0.024427,0.589449,0.545907,-0.034306,0.623711,0.524088,-0.039484,0.628258,0.566804,0.009776,0.618246,0.521945,-0.015045,0.615264,0.568444,-0.025997,0.626199,0.585144,-0.029751,0.658513,0.567026,0.008486,0.647015,0.527461,-0.020275,0.642394,0.58847,-0.022772,0.654235,0.600272,-0.016082,0.68892,0.56857,0.000855,0.679199,0.531685,-0.029702,0.66934,0.5905,-0.02092,0.678369,0.60612,-0.005211,0.721311,0.576413,-0.008514,0.712625,0.535174,-0.022317,0.70004,0.576296,-0.012538,0.703082,0.597989,-0.000183,0,1,0
290,'2026/05/06 10:38:48:029',2,0.676786,0.702411,0,0.623929,0.670409,-0.017366,0.58717,0.612989,-0.025864,0.588244,0.545767,-0.035946,0.622409,0.524734,-0.04132,0.62627,0.564911,0.007881,0.618154,0.519462,-0.016709,0.616012,0.566251,-0.027209,0.624658,0.583981,-0.030598,0.657153,0.564729,0.006952,0.64683,0.526114,-0.021184,0.644147,0.586378,-0.023517,0.652807,0.598298,-0.017058,0.687818,0.566705,-0.000228,0.6797,0.531113,-0.030566,0.67212,0.589669,-0.021637,0.677889,0.604924,-0.006092,0.719751,0.575241,-0.00917,0.71336,0.535962,-0.023397,0.703051,0.577518,-0.013824,0.704258,0.597968,-0.001746,0,1,0
291,'2026/05/06 10:38:48:062',2,0.676483,0.70511,0,0.622081,0.668142,-0.017087,0.585985,0.61234,-0.025186,0.588555,0.546719,-0.034891,0.622212,0.524648,-0.039603,0.626617,0.562972,0.009874,0.615527,0.519417,-0.014151,0.613687,0.56692,-0.025121,0.624238,0.582279,-0.029166,0.657466,0.564362,0.009059,0.645343,0.52638,-0.019254,0.642167,0.588362,-0.022387,0.652851,0.599545,-0.016427,0.688234,0.566969,0.001997,0.677859,0.531975,-0.027872,0.669496,0.591024,-0.019377,0.677691,0.605603,-0.004179,0.720592,0.576007,-0.006841,0.711624,0.536519,-0.020282,0.700375,0.577691,-0.010572,0.703426,0.597937,0.001639,0,1,0
292,'2026/05/06 10:38:48:097',2,0.676125,0.705414,0,0.622649,0.67034,-0.017038,0.5859,0.612528,-0.025772,0.587395,0.54522,-0.036349,0.622076,0.52408,-0.042171,0.626702,0.564486,0.009513,0.617328,0.520151,-0.014932,0.614251,0.566854,-0.025199,0.623973,0.58457,-0.028449,0.657457,0.564776,0.008207,0.646139,0.525355,-0.020198,0.641713,0.586375,-0.022299,0.651989,0.598878,-0.015371,0.688278,0.567405,0.000519,0.678282,0.531594,-0.030193,0.669557,0.590116,-0.021496,0.677249,0.605973,-0.005795,0.72052,0.576751,-0.00887,0.711716,0.536151,-0.023105,0.701339,0.577032,-0.013562,0.70466,0.598137,-0.001323,0,1,0
293,'2026/05/06 10:38:48:145',2,0.675619,0.705114,0,0.620891,0.669632,-0.01685,0.5847,0.611879,-0.024686,0.58753,0.545529,-0.034434,0.622014,0.524682,-0.03939,0.625794,0.563754,0.011003,0.614698,0.519652,-0.013605,0.612677,0.567027,-0.024996,0.624055,0.583757,-0.029087,0.656577,0.564563,0.009957,0.644654,0.526354,-0.018549,0.640814,0.587807,-0.021656,0.652366,0.599704,-0.015459,0.687248,0.567123,0.002467,0.67737,0.531766,-0.027972,0.667791,0.590608,-0.019716,0.676301,0.606189,-0.004301,0.719666,0.576297,-0.006804,0.711511,0.535464,-0.02045,0.698693,0.576068,-0.010847,0.700827,0.597623,0.00142,0,1,0
294,'2026/05/06 10:38:48:179',2,0.675619,0.705114,0,0.620891,0.669632,-0.01685,0.5847,0.611879,-0.024686,0.58753,0.545529,-0.034434,0.622014,0.524682,-0.03939,0.625794,0.563754,0.011003,0.614698,0.519652,-0.013605,0.612677,0.567027,-0.024996,0.624055,0.583757,-0.029087,0.656577,0.564563,0.009957,0.644654,0.526354,-0.018549,0.640814,0.587807,-0.021656,0.652366,0.599704,-0.015459,0.687248,0.567123,0.002467,0.67737,0.531766,-0.027972,0.667791,0.590608,-0.019716,0.676301,0.606189,-0.004301,0.719666,0.576297,-0.006804,0.711511,0.535464,-0.02045,0.698693,0.576068,-0.010847,0.700827,0.597623,0.00142,0,1,0
295,'2026/05/06 10:38:48:210',2,0.674305,0.702736,0,0.622164,0.670566,-0.018313,0.58556,0.612589,-0.027175,0.586827,0.545534,-0.037585,0.621882,0.522844,-0.043118,0.625682,0.562437,0.008285,0.616653,0.518681,-0.017509,0.613526,0.56578,-0.028524,0.622614,0.58229,-0.031869,0.656725,0.563044,0.007621,0.645831,0.526332,-0.02118,0.640563,0.586627,-0.02347,0.650608,0.595472,-0.016611,0.687221,0.566257,0.00034,0.678033,0.531877,-0.03094,0.667901,0.590213,-0.022046,0.675578,0.603101,-0.006004,0.719167,0.575429,-0.008747,0.71087,0.536825,-0.022815,0.698401,0.577845,-0.012825,0.700427,0.597065,-0.000168,0,1,0
296,'2026/05/06 10:38:48:242',2,0.673132,0.703945,0,0.62172,0.670838,-0.018293,0.584976,0.611906,-0.027182,0.586567,0.544595,-0.037573,0.620488,0.524176,-0.043058,0.626275,0.561298,0.007471,0.617546,0.51716,-0.017352,0.613091,0.565295,-0.027297,0.622014,0.582635,-0.030148,0.656959,0.562498,0.006656,0.647343,0.524701,-0.021408,0.640579,0.585161,-0.02292,0.649946,0.595679,-0.015717,0.686952,0.566698,-0.000644,0.678849,0.53172,-0.031049,0.667928,0.589561,-0.021622,0.674865,0.603316,-0.005553,0.718478,0.577511,-0.009792,0.71191,0.536957,-0.023223,0.699161,0.577382,-0.012955,0.700497,0.597353,-0.000361,0,1,0
297,'2026/05/06 10:38:48:275',2,0.673726,0.70467,0,0.62162,0.670185,-0.017466,0.585057,0.61137,-0.025814,0.586982,0.543578,-0.035856,0.622329,0.522542,-0.041084,0.624461,0.562939,0.009042,0.61381,0.518328,-0.015336,0.610886,0.565635,-0.025215,0.621563,0.581501,-0.028125,0.655385,0.563569,0.008052,0.644649,0.524956,-0.019981,0.6391,0.585137,-0.021752,0.649698,0.595057,-0.01463,0.685929,0.566959,0.000647,0.676554,0.530989,-0.029911,0.666092,0.588886,-0.020936,0.674211,0.602933,-0.004936,0.718368,0.577035,-0.008493,0.710265,0.534945,-0.02201,0.697632,0.575255,-0.011812,0.699988,0.596002,0.000915,0,1,0
298,'2026/05/06 10:38:48:305',2,0.673428,0.701192,0,0.620622,0.667357,-0.017236,0.583463,0.609971,-0.02624,0.584819,0.543523,-0.037033,0.619141,0.523833,-0.043246,0.627296,0.56156,0.00795,0.618536,0.51634,-0.016303,0.61371,0.563619,-0.026691,0.6228,0.579905,-0.030273,0.657908,0.563152,0.006859,0.64719,0.523931,-0.020984,0.640908,0.583687,-0.023141,0.65052,0.594913,-0.016642,0.687973,0.566774,-0.000482,0.678252,0.529565,-0.030341,0.667947,0.587273,-0.021637,0.675397,0.60253,-0.006335,0.719382,0.576615,-0.009548,0.710608,0.534993,-0.023053,0.698381,0.575386,-0.013438,0.700685,0.59666,-0.001406,0,1,0
299,'2026/05/06 10:38:48:335',2,0.675526,0.703841,0,0.621426,0.670942,-0.01884,0.584225,0.612524,-0.027905,0.585492,0.54456,-0.038398,0.620053,0.523864,-0.043949,0.624393,0.561534,0.008567,0.615537,0.517596,-0.01632,0.612099,0.565447,-0.026847,0.621906,0.582117,-0.030108,0.655035,0.562559,0.008415,0.645588,0.525128,-0.020271,0.640088,0.586184,-0.022809,0.649404,0.596382,-0.016032,0.685419,0.565942,0.001763,0.677443,0.530765,-0.02863,0.667061,0.589068,-0.019718,0.673766,0.602173,-0.003807,0.717543,0.576182,-0.00676,0.710878,0.535207,-0.019553,0.698207,0.576128,-0.009109,0.699307,0.596087,0.003699,0,1,0
300,'2026/05/06 10:38:48:368',2,0.673569,0.702536,0,0.620981,0.669021,-0.017815,0.58444,0.612874,-0.027161,0.585912,0.546793,-0.038246,0.620493,0.522752,-0.044708,0.623583,0.563033,0.008061,0.613758,0.518852,-0.017724,0.6118,0.565816,-0.029101,0.621635,0.581945,-0.032889,0.654507,0.563002,0.007034,0.643039,0.524838,-0.021898,0.639614,0.58531,-0.024336,0.649744,0.595413,-0.017676,0.685366,0.565414,-0.000487,0.676265,0.529392,-0.031574,0.667461,0.58827,-0.022427,0.674693,0.602381,-0.006406,0.717951,0.574244,-0.009831,0.710085,0.534407,-0.024,0.69847,0.575923,-0.013979,0.700301,0.596116,-0.001415,0,1,0
301,'2026/05/06 10:38:48:399',2,0.67364,0.70599,0,0.62026,0.669485,-0.017604,0.584294,0.61052,-0.025896,0.586648,0.543383,-0.035799,0.621888,0.523176,-0.040673,0.62542,0.561475,0.009584,0.614374,0.517692,-0.01433,0.611476,0.565942,-0.024541,0.622389,0.579148,-0.028075,0.655967,0.563814,0.008769,0.644458,0.525584,-0.018634,0.639061,0.586476,-0.020339,0.650214,0.594285,-0.01346,0.686121,0.568039,0.00153,0.676794,0.531216,-0.027781,0.66593,0.58932,-0.018012,0.674406,0.601877,-0.001908,0.718056,0.578751,-0.007617,0.710247,0.536401,-0.019714,0.696491,0.57652,-0.008672,0.698208,0.596674,0.004358,0,1,0
302,'2026/05/06 10:38:48:431',2,0.674601,0.704297,0,0.621222,0.669648,-0.016333,0.584926,0.614433,-0.024513,0.586566,0.547195,-0.035024,0.621083,0.522426,-0.041069,0.624511,0.566091,0.014175,0.614882,0.520798,-0.010902,0.611697,0.566258,-0.022908,0.620778,0.585496,-0.026695,0.655337,0.565596,0.012947,0.644177,0.525972,-0.015386,0.639653,0.584102,-0.019443,0.649486,0.597887,-0.013499,0.685865,0.567582,0.00509,0.676271,0.530584,-0.02506,0.666919,0.586862,-0.018086,0.674028,0.604273,-0.003157,0.71846,0.575812,-0.004461,0.709497,0.534913,-0.017839,0.697907,0.573875,-0.008944,0.700324,0.595612,0.003057,0,1,0
303,'2026/05/06 10:38:48:471',2,0.675015,0.706773,0,0.619778,0.669843,-0.017714,0.583423,0.611328,-0.026197,0.585341,0.54372,-0.036341,0.620668,0.524978,-0.041404,0.625375,0.562618,0.010826,0.614407,0.518231,-0.014051,0.611648,0.566547,-0.02556,0.622549,0.581488,-0.029727,0.655558,0.564265,0.010343,0.644006,0.526287,-0.01823,0.639618,0.588252,-0.02133,0.650481,0.597114,-0.014978,0.68566,0.56737,0.003361,0.676221,0.531932,-0.0265,0.666328,0.590303,-0.017978,0.674785,0.602828,-0.002371,0.717667,0.577004,-0.005509,0.710363,0.535868,-0.017846,0.69798,0.576074,-0.007552,0.700468,0.595913,0.005184,0,1,0
304,'2026/05/06 10:38:48:512',2,0.674647,0.704937,0,0.620848,0.671224,-0.017398,0.584127,0.612542,-0.025317,0.586042,0.544867,-0.034894,0.621189,0.523283,-0.039407,0.62587,0.564119,0.009751,0.615442,0.520237,-0.014966,0.612227,0.568716,-0.02557,0.622161,0.582229,-0.029173,0.655876,0.564974,0.008807,0.644026,0.526585,-0.019733,0.63968,0.588207,-0.021573,0.651118,0.595717,-0.01446,0.685739,0.567372,0.001335,0.676154,0.530559,-0.029187,0.666807,0.590447,-0.019456,0.675833,0.603022,-0.003049,0.717728,0.57579,-0.008041,0.709554,0.535964,-0.021517,0.697885,0.577329,-0.011235,0.701134,0.596513,0.001462,0,1,0
305,'2026/05/06 10:38:48:541',2,0.674968,0.704235,0,0.620008,0.670182,-0.016347,0.584214,0.614316,-0.024322,0.585397,0.547521,-0.034468,0.619702,0.524454,-0.039632,0.625548,0.564704,0.01336,0.615184,0.520204,-0.011831,0.612088,0.567049,-0.023449,0.621729,0.58288,-0.027315,0.655378,0.565502,0.012015,0.643566,0.526838,-0.01668,0.639307,0.587303,-0.019866,0.650475,0.596817,-0.013373,0.685241,0.567775,0.004036,0.675472,0.531954,-0.026215,0.666494,0.590186,-0.017556,0.675709,0.603841,-0.00167,0.717688,0.576159,-0.005774,0.709767,0.536391,-0.018562,0.697876,0.57674,-0.008362,0.701122,0.596575,0.004398,0,1,0
306,'2026/05/06 10:38:48:572',2,0.674968,0.704235,0,0.620008,0.670182,-0.016347,0.584214,0.614316,-0.024322,0.585397,0.547521,-0.034468,0.619702,0.524454,-0.039632,0.625548,0.564704,0.01336,0.615184,0.520204,-0.011831,0.612088,0.567049,-0.023449,0.621729,0.58288,-0.027315,0.655378,0.565502,0.012015,0.643566,0.526838,-0.01668,0.639307,0.587303,-0.019866,0.650475,0.596817,-0.013373,0.685241,0.567775,0.004036,0.675472,0.531954,-0.026215,0.666494,0.590186,-0.017556,0.675709,0.603841,-0.00167,0.717688,0.576159,-0.005774,0.709767,0.536391,-0.018562,0.697876,0.57674,-0.008362,0.701122,0.596575,0.004398,0,1,0
307,'2026/05/06 10:38:48:606',2,0.674885,0.70348,0,0.621441,0.670002,-0.015874,0.584775,0.614417,-0.023069,0.586352,0.548467,-0.032367,0.619094,0.524207,-0.03703,0.628011,0.560731,0.011447,0.61775,0.518373,-0.012682,0.614457,0.56662,-0.023711,0.622904,0.583506,-0.027423,0.658589,0.562212,0.009832,0.648061,0.527163,-0.017227,0.642527,0.587455,-0.020184,0.651129,0.596307,-0.014159,0.688751,0.566181,0.001955,0.67953,0.531652,-0.027641,0.669568,0.590537,-0.018673,0.675895,0.60437,-0.002911,0.720225,0.576044,-0.007562,0.7115,0.536027,-0.020773,0.699786,0.576026,-0.010208,0.702198,0.595184,0.002892,0,1,0
308,'2026/05/06 10:38:48:638',2,0.676262,0.704974,0,0.621721,0.668234,-0.016445,0.585235,0.612383,-0.024925,0.58646,0.545047,-0.035372,0.621301,0.524794,-0.041013,0.627342,0.563279,0.011911,0.619164,0.518582,-0.01231,0.61582,0.565241,-0.023678,0.624385,0.583043,-0.027659,0.657681,0.564219,0.010883,0.647364,0.525837,-0.016755,0.643106,0.585582,-0.02032,0.652076,0.597348,-0.014648,0.687986,0.56674,0.003546,0.678804,0.531413,-0.025358,0.670098,0.588418,-0.017434,0.676876,0.603534,-0.002668,0.719971,0.575738,-0.00552,0.712151,0.535539,-0.017625,0.701173,0.575486,-0.00769,0.703535,0.596169,0.004572,0,1,0
309,'2026/05/06 10:38:48:670',2,0.676978,0.703067,0,0.623323,0.670626,-0.017347,0.585741,0.613583,-0.026171,0.586753,0.545823,-0.036766,0.621378,0.522555,-0.042772,0.625807,0.565362,0.008608,0.616156,0.520312,-0.016661,0.614244,0.566052,-0.027704,0.623728,0.583186,-0.031176,0.656441,0.564994,0.007531,0.644788,0.525783,-0.021259,0.641421,0.585057,-0.023842,0.651123,0.596852,-0.017155,0.686675,0.566602,0.000055,0.677196,0.530065,-0.031096,0.668873,0.588189,-0.022686,0.675811,0.603945,-0.006952,0.718638,0.574505,-0.009132,0.710289,0.533963,-0.023575,0.699698,0.574747,-0.014157,0.701877,0.595717,-0.001894,0,1,0
310,'2026/05/06 10:38:48:703',2,0.675204,0.705124,0,0.621622,0.669603,-0.019177,0.585791,0.61289,-0.028476,0.58734,0.545573,-0.039,0.621676,0.525053,-0.04437,0.626637,0.562586,0.007505,0.617098,0.519536,-0.016309,0.614657,0.568124,-0.026113,0.62504,0.58278,-0.029353,0.657288,0.563107,0.007589,0.6467,0.526417,-0.020205,0.642564,0.588184,-0.022271,0.653048,0.597528,-0.015666,0.687641,0.565708,0.001311,0.678695,0.531497,-0.028357,0.669502,0.590051,-0.019581,0.677414,0.603238,-0.004234,0.719226,0.575052,-0.006892,0.711929,0.53488,-0.019858,0.700312,0.575626,-0.00997,0.702678,0.59615,0.002287,0,1,0
311,'2026/05/06 10:38:48:735',2,0.676371,0.7026,0,0.622799,0.670317,-0.016601,0.585353,0.612488,-0.024241,0.5868,0.543731,-0.033733,0.62145,0.523644,-0.038466,0.625354,0.564528,0.010731,0.616965,0.519362,-0.013226,0.614709,0.566543,-0.023427,0.623195,0.584254,-0.026584,0.656399,0.564459,0.009705,0.645273,0.525815,-0.018303,0.642962,0.586444,-0.020731,0.652172,0.598557,-0.014103,0.687023,0.566345,0.002308,0.67758,0.530737,-0.028009,0.670431,0.589566,-0.019866,0.677062,0.604934,-0.004635,0.718959,0.574518,-0.006759,0.711434,0.536053,-0.020806,0.701591,0.577265,-0.011867,0.704106,0.597386,-0.000181,0,1,0
312,'2026/05/06 10:38:48:766',2,0.675543,0.702841,0,0.621908,0.668118,-0.01618,0.585631,0.612266,-0.024466,0.587523,0.546265,-0.034804,0.621301,0.524544,-0.040626,0.628076,0.564399,0.010312,0.617178,0.520699,-0.014327,0.61431,0.566733,-0.025655,0.624459,0.584022,-0.029697,0.658227,0.564939,0.008769,0.645349,0.525984,-0.019946,0.64153,0.586066,-0.023109,0.652678,0.598674,-0.017016,0.688346,0.566998,0.000951,0.677202,0.53114,-0.029864,0.668197,0.589676,-0.021715,0.676418,0.605652,-0.006418,0.72014,0.575643,-0.008507,0.710601,0.535032,-0.022626,0.698599,0.576112,-0.013068,0.701226,0.597609,-0.000859,0,1,0
313,'2026/05/06 10:38:48:797',2,0.675053,0.70558,0,0.622067,0.669316,-0.016369,0.585959,0.612145,-0.024893,0.587363,0.545629,-0.035528,0.622218,0.524041,-0.041655,0.628376,0.564955,0.010163,0.618281,0.519738,-0.014271,0.613578,0.565876,-0.024803,0.622854,0.583366,-0.028098,0.658958,0.566147,0.008689,0.64798,0.52601,-0.019128,0.641227,0.58586,-0.021373,0.651008,0.598456,-0.014665,0.689384,0.56967,0.00091,0.680061,0.531662,-0.028896,0.669222,0.589431,-0.020036,0.676567,0.606343,-0.004355,0.72137,0.579805,-0.008554,0.712992,0.537072,-0.021749,0.700334,0.576693,-0.01174,0.702587,0.598567,0.000734,0,1,0
314,'2026/05/06 10:38:48:832',2,0.674923,0.704887,0,0.622149,0.67079,-0.017678,0.586114,0.61167,-0.025909,0.587965,0.545255,-0.035658,0.621224,0.524302,-0.040297,0.627956,0.562164,0.008174,0.617929,0.518784,-0.016594,0.61403,0.566754,-0.026594,0.623418,0.582829,-0.029586,0.658283,0.563178,0.007127,0.64687,0.526955,-0.021103,0.640951,0.587556,-0.022547,0.651778,0.595749,-0.015342,0.68827,0.566858,-0.000433,0.678644,0.533666,-0.030902,0.668289,0.591213,-0.021218,0.676725,0.602308,-0.00504,0.720044,0.576949,-0.009832,0.712026,0.537679,-0.022923,0.699232,0.577605,-0.012306,0.701725,0.595358,0.000464,0,1,0
315,'2026/05/06 10:38:48:867',2,0.675814,0.706854,0,0.622468,0.672054,-0.018375,0.585849,0.613723,-0.027236,0.58715,0.546272,-0.037549,0.621237,0.525608,-0.042653,0.628535,0.56363,0.008466,0.617518,0.518972,-0.016167,0.61466,0.567818,-0.026478,0.626102,0.583772,-0.029774,0.6588,0.5647,0.007858,0.647068,0.527034,-0.020147,0.641388,0.588225,-0.021812,0.653231,0.597357,-0.014731,0.68852,0.568395,0.000683,0.678588,0.533714,-0.029228,0.667905,0.591871,-0.019828,0.677149,0.604501,-0.003831,0.720019,0.578687,-0.008426,0.711696,0.539203,-0.021088,0.69859,0.57891,-0.010711,0.701301,0.598265,0.001973,0,1,0
316,'2026/05/06 10:38:48:901',2,0.676268,0.707203,0,0.62092,0.669572,-0.015933,0.585291,0.610959,-0.023334,0.587587,0.544444,-0.033153,0.622324,0.524525,-0.038293,0.628651,0.565618,0.014476,0.617904,0.521886,-0.009844,0.614633,0.567778,-0.021486,0.625629,0.585351,-0.025598,0.658494,0.56605,0.013072,0.645728,0.528434,-0.015514,0.641692,0.588736,-0.019203,0.654402,0.600854,-0.013112,0.688761,0.568206,0.005095,0.677237,0.532709,-0.02531,0.668068,0.59052,-0.017911,0.678353,0.606016,-0.002797,0.720802,0.577154,-0.004611,0.71048,0.535491,-0.018002,0.698026,0.575638,-0.00866,0.702119,0.597469,0.003576,0,1,0
317,'2026/05/06 10:38:48:951',2,0.676759,0.704989,0,0.621259,0.669244,-0.01713,0.584729,0.611876,-0.0254,0.586556,0.544776,-0.035549,0.622039,0.525138,-0.040761,0.625998,0.564348,0.012504,0.617392,0.52046,-0.012147,0.614421,0.566539,-0.023738,0.62417,0.583234,-0.027772,0.656497,0.565184,0.011887,0.645823,0.527201,-0.016628,0.641876,0.58882,-0.020174,0.652384,0.599915,-0.013983,0.687014,0.567697,0.004712,0.677684,0.533281,-0.025546,0.66842,0.591807,-0.017928,0.676541,0.606163,-0.002761,0.71915,0.576608,-0.004206,0.71123,0.536752,-0.017092,0.699057,0.577398,-0.007469,0.701375,0.598063,0.004829,0,1,0
318,'2026/05/06 10:38:48:981',2,0.676759,0.704989,0,0.621259,0.669244,-0.01713,0.584729,0.611876,-0.0254,0.586556,0.544776,-0.035549,0.622039,0.525138,-0.040761,0.625998,0.564348,0.012504,0.617392,0.52046,-0.012147,0.614421,0.566539,-0.023738,0.62417,0.583234,-0.027772,0.656497,0.565184,0.011887,0.645823,0.527201,-0.016628,0.641876,0.58882,-0.020174,0.652384,0.599915,-0.013983,0.687014,0.567697,0.004712,0.677684,0.533281,-0.025546,0.66842,0.591807,-0.017928,0.676541,0.606163,-0.002761,0.71915,0.576608,-0.004206,0.71123,0.536752,-0.017092,0.699057,0.577398,-0.007469,0.701375,0.598063,0.004829,0,1,0
319,'2026/05/06 10:38:49:022',2,0.675497,0.7046,0,0.621375,0.668808,-0.01555,0.584993,0.612258,-0.022888,0.587637,0.545609,-0.032624,0.621853,0.524824,-0.037804,0.627819,0.564753,0.014086,0.618483,0.519526,-0.009985,0.61482,0.565847,-0.021596,0.624012,0.583798,-0.025689,0.658494,0.566241,0.012614,0.647225,0.525837,-0.015829,0.642637,0.586819,-0.019703,0.652495,0.601541,-0.013815,0.689046,0.569037,0.004722,0.678861,0.530893,-0.0254,0.669633,0.589568,-0.017987,0.677056,0.608229,-0.00303,0.721109,0.578013,-0.004809,0.71133,0.536664,-0.018377,0.699725,0.576931,-0.009468,0.702646,0.599729,0.00232,0,1,0
320,'2026/05/06 10:38:49:072',2,0.676764,0.704171,0,0.622619,0.671522,-0.018237,0.585525,0.613144,-0.02634,0.587169,0.544839,-0.035863,0.62168,0.524372,-0.04048,0.625576,0.565527,0.008656,0.617127,0.520867,-0.015661,0.61472,0.568722,-0.025955,0.623851,0.584527,-0.029336,0.656626,0.565407,0.008295,0.645485,0.52729,-0.019985,0.642533,0.588369,-0.022119,0.652478,0.598923,-0.015333,0.687114,0.567094,0.001456,0.67758,0.532254,-0.029121,0.670094,0.59126,-0.020541,0.677667,0.605441,-0.005026,0.718926,0.574994,-0.007223,0.711179,0.536348,-0.021366,0.701039,0.577451,-0.012119,0.703699,0.597243,-0.000204,0,1,0
321,'2026/05/06 10:38:49:114',2,0.675455,0.701742,0,0.621757,0.668595,-0.01712,0.585233,0.61209,-0.025575,0.586755,0.545419,-0.035902,0.620637,0.523968,-0.041433,0.626748,0.562759,0.009841,0.617423,0.518025,-0.014789,0.614701,0.565468,-0.025222,0.624092,0.582323,-0.028538,0.65771,0.564267,0.008711,0.645476,0.524867,-0.020249,0.641911,0.587116,-0.022575,0.652637,0.599072,-0.015675,0.688254,0.567309,0.001104,0.677551,0.530312,-0.030014,0.669143,0.5901,-0.021366,0.677455,0.605833,-0.00563,0.720204,0.576385,-0.008235,0.711034,0.536165,-0.022986,0.700153,0.577927,-0.013832,0.703268,0.599516,-0.001809,0,1,0
322,'2026/05/06 10:38:49:138',2,0.676416,0.70261,0,0.623524,0.669858,-0.017128,0.586755,0.612213,-0.025107,0.58902,0.545222,-0.034735,0.624012,0.522323,-0.039613,0.626425,0.560833,0.009456,0.615266,0.519121,-0.015133,0.613022,0.566035,-0.025769,0.622753,0.581878,-0.029097,0.657848,0.561055,0.008252,0.646018,0.525676,-0.019516,0.641622,0.585433,-0.021826,0.651726,0.594681,-0.015228,0.688676,0.564366,0.00066,0.67896,0.531369,-0.029754,0.669446,0.589074,-0.020907,0.676709,0.601999,-0.005154,0.720982,0.574106,-0.008655,0.712485,0.536002,-0.022233,0.700633,0.576152,-0.012043,0.702737,0.594692,0.000636,0,1,0
323,'2026/05/06 10:38:49:169',2,0.677732,0.701969,0,0.62432,0.668107,-0.016192,0.587333,0.610402,-0.024237,0.588915,0.542587,-0.034279,0.624402,0.522167,-0.03982,0.626369,0.564211,0.009733,0.618062,0.517702,-0.014904,0.615415,0.56369,-0.025718,0.623573,0.582598,-0.029116,0.657459,0.563905,0.008397,0.646835,0.52465,-0.019702,0.644,0.583656,-0.022518,0.652308,0.597151,-0.016281,0.688231,0.565661,0.000833,0.679345,0.530174,-0.029372,0.672106,0.587637,-0.021277,0.677812,0.604285,-0.006148,0.720349,0.573968,-0.008358,0.712954,0.534234,-0.022229,0.703448,0.574544,-0.013009,0.705295,0.595351,-0.00117,0,1,0
324,'2026/05/06 10:38:49:200',2,0.678502,0.696632,0,0.624383,0.665939,-0.016242,0.587483,0.608639,-0.023538,0.589775,0.542295,-0.032675,0.623199,0.521845,-0.037155,0.627837,0.561393,0.009477,0.619365,0.516692,-0.015042,0.616939,0.56369,-0.025959,0.62558,0.579575,-0.029852,0.658557,0.562172,0.00812,0.647407,0.523611,-0.020481,0.644801,0.584062,-0.02323,0.654317,0.595099,-0.016988,0.688885,0.563892,0.000523,0.679722,0.528307,-0.030088,0.672447,0.587109,-0.021313,0.679764,0.601697,-0.005859,0.720773,0.571637,-0.008784,0.713315,0.533581,-0.023233,0.702884,0.575437,-0.013866,0.705143,0.595508,-0.00197,0,1,0
325,'2026/05/06 10:38:49:232',2,0.676289,0.694937,0,0.624029,0.665998,-0.017841,0.586771,0.607575,-0.026709,0.588128,0.541308,-0.037021,0.622344,0.521072,-0.042582,0.626651,0.559689,0.00446,0.61837,0.513944,-0.021166,0.615232,0.562286,-0.031227,0.623385,0.577754,-0.034458,0.657767,0.561277,0.003357,0.646287,0.521706,-0.026601,0.642941,0.584367,-0.028198,0.652422,0.594346,-0.020905,0.688441,0.563938,-0.003971,0.678212,0.527409,-0.035946,0.670496,0.58861,-0.026205,0.678115,0.601708,-0.009934,0.72024,0.57246,-0.013016,0.711297,0.533983,-0.028666,0.701775,0.577653,-0.019251,0.70508,0.597113,-0.007206,0,1,0
326,'2026/05/06 10:38:49:270',2,0.675832,0.697258,0,0.622164,0.666333,-0.018383,0.586239,0.607003,-0.02717,0.589659,0.540538,-0.037392,0.624998,0.521093,-0.042659,0.628662,0.560035,0.005525,0.619641,0.51682,-0.018363,0.615465,0.563961,-0.02708,0.62575,0.57766,-0.029757,0.659339,0.561454,0.004959,0.647583,0.524213,-0.024393,0.641809,0.587245,-0.02534,0.65341,0.596084,-0.017491,0.68949,0.564461,-0.001885,0.679016,0.529043,-0.033253,0.668157,0.589733,-0.023489,0.67734,0.601714,-0.007092,0.720603,0.573583,-0.010519,0.712082,0.53407,-0.025055,0.699555,0.575572,-0.015535,0.703129,0.594429,-0.003462,0,1,0
327,'2026/05/06 10:38:49:301',2,0.67543,0.697866,0,0.62217,0.666007,-0.016913,0.585604,0.607546,-0.024459,0.587565,0.540267,-0.033747,0.62182,0.521403,-0.038307,0.625479,0.559844,0.00948,0.61657,0.51618,-0.014406,0.613479,0.562985,-0.02415,0.622468,0.578971,-0.02718,0.656039,0.560824,0.008497,0.644892,0.522478,-0.019745,0.641026,0.583401,-0.021692,0.651212,0.593692,-0.014687,0.686776,0.56333,0.001168,0.676447,0.528634,-0.029301,0.668327,0.58746,-0.02075,0.676511,0.600613,-0.005267,0.719235,0.57175,-0.007873,0.710575,0.533163,-0.021917,0.700475,0.574151,-0.012694,0.704131,0.593219,-0.000862,0,1,0
328,'2026/05/06 10:38:49:331',2,0.6755,0.694858,0,0.622354,0.666798,-0.016775,0.585196,0.60772,-0.024437,0.587219,0.540228,-0.033781,0.622092,0.52038,-0.038372,0.625692,0.560322,0.007029,0.618611,0.515737,-0.017209,0.615349,0.563159,-0.026814,0.623554,0.578453,-0.029915,0.656376,0.561484,0.006018,0.645189,0.523295,-0.022872,0.641845,0.585849,-0.024392,0.651894,0.595414,-0.017175,0.687056,0.563739,-0.001176,0.676352,0.527942,-0.032342,0.668158,0.588774,-0.023124,0.676309,0.602019,-0.007237,0.718908,0.571755,-0.00999,0.709329,0.532976,-0.024923,0.699124,0.575669,-0.01577,0.702981,0.595837,-0.003953,0,1,0
329,'2026/05/06 10:38:49:360',2,0.675223,0.697118,0,0.621044,0.664898,-0.018058,0.584474,0.607272,-0.026293,0.58635,0.540675,-0.035954,0.620924,0.52109,-0.040613,0.625696,0.559198,0.008464,0.617159,0.517122,-0.015457,0.614396,0.564609,-0.025475,0.623418,0.579554,-0.028788,0.656353,0.560492,0.008189,0.645307,0.524233,-0.020332,0.641954,0.586084,-0.022898,0.651592,0.595975,-0.0164,0.686751,0.563309,0.001609,0.676446,0.528832,-0.028909,0.668328,0.588157,-0.020688,0.675977,0.601453,-0.005463,0.718236,0.572274,-0.006713,0.709439,0.533862,-0.020624,0.698838,0.574896,-0.011558,0.701675,0.59436,0.000195,0,1,0
330,'2026/05/06 10:38:49:390',2,0.675223,0.697118,0,0.621044,0.664898,-0.018058,0.584474,0.607272,-0.026293,0.58635,0.540675,-0.035954,0.620924,0.52109,-0.040613,0.625696,0.559198,0.008464,0.617159,0.517122,-0.015457,0.614396,0.564609,-0.025475,0.623418,0.579554,-0.028788,0.656353,0.560492,0.008189,0.645307,0.524233,-0.020332,0.641954,0.586084,-0.022898,0.651592,0.595975,-0.0164,0.686751,0.563309,0.001609,0.676446,0.528832,-0.028909,0.668328,0.588157,-0.020688,0.675977,0.601453,-0.005463,0.718236,0.572274,-0.006713,0.709439,0.533862,-0.020624,0.698838,0.574896,-0.011558,0.701675,0.59436,0.000195,0,1,0
331,'2026/05/06 10:38:49:436',2,0.673149,0.69934,0,0.619464,0.667806,-0.016669,0.583311,0.607664,-0.024227,0.586513,0.54014,-0.033795,0.621805,0.522927,-0.038626,0.626141,0.56052,0.009873,0.616934,0.516659,-0.014021,0.612795,0.563292,-0.023841,0.622991,0.579894,-0.026992,0.656443,0.561685,0.008649,0.64453,0.524386,-0.020155,0.639275,0.58629,-0.022036,0.650808,0.597399,-0.014755,0.686516,0.564675,0.001035,0.675926,0.529218,-0.030055,0.665241,0.588931,-0.021336,0.673977,0.603537,-0.005396,0.717898,0.574042,-0.008273,0.709442,0.534113,-0.022338,0.696124,0.574821,-0.012938,0.698424,0.595393,-0.000829,0,1,0
332,'2026/05/06 10:38:49:467',2,0.676319,0.701273,0,0.621379,0.666349,-0.018595,0.585032,0.60893,-0.02786,0.586603,0.542404,-0.038531,0.621334,0.521479,-0.044274,0.625051,0.560407,0.007421,0.613994,0.517817,-0.018045,0.612012,0.565169,-0.029094,0.623052,0.58174,-0.032853,0.655678,0.560943,0.006892,0.643045,0.523141,-0.022592,0.639685,0.584634,-0.025077,0.651509,0.595751,-0.0183,0.68627,0.563276,-0.000131,0.675238,0.529333,-0.031484,0.666777,0.588159,-0.022744,0.675922,0.602094,-0.006905,0.718544,0.572231,-0.009034,0.709283,0.533306,-0.023188,0.69783,0.574223,-0.01345,0.701015,0.594195,-0.001084,0,1,0
333,'2026/05/06 10:38:49:501',2,0.674842,0.702095,0,0.621148,0.666758,-0.01569,0.585508,0.608662,-0.023577,0.587487,0.542166,-0.033767,0.622195,0.521839,-0.039371,0.62703,0.56131,0.011479,0.617888,0.517539,-0.013297,0.614051,0.563667,-0.024548,0.623755,0.582302,-0.028335,0.656989,0.561826,0.009703,0.645175,0.524109,-0.018639,0.640186,0.583404,-0.021283,0.651712,0.594932,-0.01484,0.687058,0.564505,0.001506,0.676636,0.529032,-0.028895,0.666683,0.586064,-0.020652,0.675411,0.601139,-0.005332,0.718904,0.573826,-0.008352,0.709658,0.533977,-0.021784,0.697333,0.573429,-0.012144,0.700284,0.5942,0.000025,0,1,0
334,'2026/05/06 10:38:49:537',2,0.675587,0.697606,0,0.622653,0.666829,-0.018004,0.585598,0.607279,-0.026231,0.587198,0.540649,-0.035751,0.620923,0.520885,-0.040375,0.625647,0.55861,0.005283,0.615791,0.5138,-0.019191,0.613389,0.56253,-0.029151,0.623092,0.576453,-0.032752,0.656488,0.560224,0.004505,0.644417,0.522323,-0.02414,0.640999,0.585194,-0.025412,0.651326,0.594292,-0.018327,0.686831,0.563423,-0.002528,0.676236,0.528483,-0.033342,0.667801,0.589257,-0.023573,0.676015,0.601424,-0.007658,0.718344,0.572662,-0.011366,0.709199,0.535357,-0.026188,0.698587,0.577972,-0.016826,0.701903,0.596522,-0.005029,0,1,0
335,'2026/05/06 10:38:49:570',2,0.675121,0.699155,0,0.622958,0.667687,-0.018165,0.58669,0.607733,-0.02717,0.588595,0.541099,-0.037429,0.623388,0.521146,-0.042367,0.628873,0.55833,0.003307,0.619039,0.515476,-0.020139,0.61548,0.564225,-0.027183,0.625535,0.578446,-0.028659,0.659169,0.559462,0.002561,0.6457,0.523624,-0.026185,0.641457,0.587996,-0.025349,0.65362,0.595784,-0.016569,0.68928,0.562446,-0.004313,0.676498,0.528068,-0.035246,0.66727,0.589784,-0.024174,0.67717,0.601114,-0.007304,0.720152,0.571749,-0.012962,0.709503,0.533138,-0.0273,0.698234,0.575196,-0.017331,0.703014,0.593236,-0.005128,0,1,0
336,'2026/05/06 10:38:49:614',2,0.676495,0.695405,0,0.623667,0.666542,-0.019387,0.587008,0.607953,-0.028656,0.589454,0.541611,-0.038347,0.622774,0.520651,-0.042659,0.626876,0.555994,-0.000328,0.619598,0.515166,-0.023948,0.617415,0.564563,-0.031201,0.625718,0.578143,-0.032981,0.658175,0.557902,-0.000385,0.647767,0.522501,-0.028804,0.643707,0.586848,-0.028397,0.652385,0.595049,-0.02041,0.68861,0.561571,-0.006297,0.679266,0.528003,-0.036963,0.67016,0.589962,-0.025576,0.676515,0.601339,-0.008956,0.719443,0.571752,-0.014004,0.711867,0.534696,-0.028832,0.700497,0.578465,-0.018674,0.702107,0.596697,-0.006489,0,1,0
337,'2026/05/06 10:38:49:650',2,0.676642,0.699736,0,0.623215,0.668684,-0.017795,0.585599,0.60954,-0.025956,0.587107,0.541538,-0.035482,0.622142,0.520349,-0.039867,0.626384,0.559616,0.006481,0.616913,0.516739,-0.018154,0.61487,0.565707,-0.02795,0.624747,0.579661,-0.031351,0.657269,0.560314,0.005418,0.644015,0.522815,-0.023931,0.641414,0.585904,-0.025123,0.652752,0.594438,-0.017715,0.687459,0.562753,-0.002007,0.67585,0.527892,-0.033688,0.667755,0.589136,-0.023673,0.676545,0.600954,-0.007271,0.719188,0.571773,-0.011233,0.709903,0.534144,-0.026318,0.698688,0.577017,-0.016674,0.701982,0.59559,-0.00454,0,1,0
338,'2026/05/06 10:38:49:676',2,0.676304,0.696761,0,0.622643,0.665069,-0.018022,0.586051,0.608007,-0.026261,0.587804,0.540806,-0.035741,0.622141,0.518201,-0.040281,0.623553,0.560219,0.007762,0.615284,0.516943,-0.016978,0.615117,0.564183,-0.027673,0.623948,0.578289,-0.031415,0.654558,0.560102,0.007347,0.643959,0.523157,-0.02143,0.643735,0.584243,-0.024235,0.65232,0.592578,-0.017974,0.685558,0.561572,0.000645,0.677001,0.528167,-0.030076,0.671469,0.587073,-0.021486,0.677682,0.59784,-0.006125,0.717899,0.569005,-0.007832,0.710731,0.533337,-0.021789,0.702486,0.574573,-0.012434,0.705097,0.591113,-0.000588,0,1,0
339,'2026/05/06 10:38:49:713',2,0.674605,0.698306,0,0.621578,0.663692,-0.016677,0.586104,0.606674,-0.024496,0.58775,0.540816,-0.034289,0.62107,0.520105,-0.039353,0.626904,0.558692,0.011548,0.618044,0.515072,-0.012957,0.614979,0.562131,-0.024077,0.624049,0.578435,-0.027907,0.657007,0.560097,0.010516,0.645699,0.522037,-0.017969,0.642032,0.582919,-0.02094,0.652162,0.594116,-0.014577,0.687158,0.563021,0.002971,0.676774,0.528124,-0.027343,0.668535,0.586467,-0.019381,0.676476,0.600803,-0.00423,0.719107,0.571926,-0.006305,0.709795,0.532973,-0.019788,0.699277,0.573285,-0.010617,0.702599,0.593231,0.001228,0,1,0
340,'2026/05/06 10:38:49:738',2,0.674934,0.69733,0,0.622044,0.66535,-0.016435,0.585434,0.607938,-0.024063,0.587265,0.541521,-0.033698,0.620767,0.520854,-0.038751,0.62675,0.559857,0.010282,0.619151,0.51588,-0.014315,0.615673,0.562308,-0.025192,0.624019,0.57932,-0.028902,0.657078,0.561078,0.008874,0.646816,0.52179,-0.020039,0.642451,0.582004,-0.023041,0.651747,0.593991,-0.01669,0.687302,0.563641,0.001105,0.677885,0.527825,-0.029759,0.669344,0.586044,-0.021646,0.676474,0.60075,-0.006368,0.719151,0.572128,-0.008344,0.71087,0.533003,-0.022649,0.700608,0.57359,-0.013578,0.703631,0.593682,-0.001783,0,1,0
341,'2026/05/06 10:38:49:782',2,0.6786,0.700417,0,0.623995,0.667911,-0.01822,0.586203,0.610463,-0.027009,0.58662,0.542612,-0.037304,0.621011,0.52043,-0.042674,0.625754,0.561871,0.008125,0.615957,0.517232,-0.017051,0.614413,0.564066,-0.027686,0.624035,0.580331,-0.031023,0.656241,0.561308,0.007509,0.644548,0.522995,-0.021732,0.64223,0.583639,-0.024173,0.652074,0.59362,-0.017322,0.686575,0.562508,0.000422,0.676933,0.528111,-0.031162,0.669907,0.586977,-0.022509,0.67713,0.599879,-0.006614,0.718419,0.569976,-0.008447,0.710801,0.5321,-0.02279,0.701539,0.573064,-0.013158,0.704434,0.591561,-0.000816,0,1,0
342,'2026/05/06 10:38:49:824',2,0.6786,0.700417,0,0.623995,0.667911,-0.01822,0.586203,0.610463,-0.027009,0.58662,0.542612,-0.037304,0.621011,0.52043,-0.042674,0.625754,0.561871,0.008125,0.615957,0.517232,-0.017051,0.614413,0.564066,-0.027686,0.624035,0.580331,-0.031023,0.656241,0.561308,0.007509,0.644548,0.522995,-0.021732,0.64223,0.583639,-0.024173,0.652074,0.59362,-0.017322,0.686575,0.562508,0.000422,0.676933,0.528111,-0.031162,0.669907,0.586977,-0.022509,0.67713,0.599879,-0.006614,0.718419,0.569976,-0.008447,0.710801,0.5321,-0.02279,0.701539,0.573064,-0.013158,0.704434,0.591561,-0.000816,0,1,0
343,'2026/05/06 10:38:49:856',2,0.675119,0.700461,0,0.622359,0.665871,-0.017816,0.586218,0.608074,-0.026415,0.586521,0.541424,-0.03671,0.621199,0.521254,-0.041976,0.626974,0.560488,0.008958,0.617797,0.515323,-0.016212,0.61389,0.562842,-0.026849,0.622654,0.580485,-0.030058,0.65677,0.561656,0.008306,0.645728,0.523311,-0.020384,0.64058,0.583763,-0.022664,0.650862,0.593769,-0.015839,0.686755,0.564374,0.001128,0.677193,0.529712,-0.02937,0.66756,0.587202,-0.020574,0.675572,0.599988,-0.004787,0.718586,0.573015,-0.007888,0.711107,0.53455,-0.020799,0.699398,0.573222,-0.010777,0.701964,0.591577,0.001646,0,1,0
344,'2026/05/06 10:38:49:890',2,0.673598,0.697486,0,0.622109,0.667464,-0.019978,0.585741,0.607277,-0.029306,0.588262,0.540716,-0.039338,0.623242,0.52301,-0.04426,0.626932,0.557371,0.001407,0.619611,0.516006,-0.022151,0.615405,0.564751,-0.030121,0.624325,0.577588,-0.032508,0.658239,0.559043,0.001592,0.647449,0.524464,-0.027038,0.642297,0.587443,-0.027183,0.652501,0.595691,-0.01935,0.688615,0.563031,-0.004343,0.678286,0.529961,-0.035294,0.668446,0.590547,-0.025172,0.676419,0.602122,-0.009065,0.719505,0.573481,-0.012129,0.710833,0.535648,-0.026815,0.699293,0.577761,-0.017382,0.702155,0.596572,-0.005611,0,1,0
345,'2026/05/06 10:38:49:928',2,0.674816,0.69565,0,0.621803,0.665804,-0.017328,0.58537,0.607848,-0.025556,0.587491,0.541407,-0.035317,0.621868,0.521858,-0.04029,0.627017,0.558882,0.006223,0.618074,0.516574,-0.017373,0.615325,0.563432,-0.026418,0.624622,0.577616,-0.029301,0.657665,0.560547,0.005121,0.645448,0.523508,-0.023524,0.64196,0.585404,-0.024991,0.65273,0.594668,-0.017809,0.688169,0.563659,-0.002076,0.67696,0.529241,-0.033002,0.66866,0.58886,-0.023761,0.676958,0.601057,-0.00798,0.71978,0.572662,-0.010938,0.710521,0.533781,-0.025507,0.699895,0.575414,-0.015965,0.703226,0.594572,-0.003943,0,1,0
346,'2026/05/06 10:38:49:959',2,0.675216,0.699168,0,0.62197,0.669413,-0.019686,0.58507,0.608612,-0.029385,0.588707,0.541199,-0.039704,0.624758,0.521505,-0.04472,0.626325,0.558846,-0.00103,0.61762,0.51652,-0.024083,0.615263,0.565477,-0.030575,0.625732,0.580561,-0.031991,0.657992,0.559827,-0.001035,0.6458,0.525247,-0.029488,0.641706,0.589046,-0.028891,0.652192,0.597809,-0.020884,0.688784,0.56316,-0.006877,0.677838,0.52914,-0.037997,0.667779,0.590635,-0.026982,0.675222,0.602582,-0.010561,0.72008,0.573039,-0.014495,0.711538,0.533634,-0.029677,0.699059,0.576661,-0.019949,0.700908,0.595799,-0.008091,0,1,0
347,'2026/05/06 10:38:49:992',2,0.676287,0.696572,0,0.623239,0.666698,-0.017821,0.585718,0.607809,-0.026261,0.587621,0.5409,-0.036277,0.621908,0.52078,-0.041644,0.62583,0.558301,0.006067,0.617309,0.514196,-0.019253,0.61447,0.562296,-0.029877,0.623107,0.577556,-0.033516,0.656869,0.56004,0.005107,0.646071,0.52176,-0.024322,0.64224,0.583597,-0.026466,0.651263,0.594211,-0.019691,0.687382,0.563123,-0.002147,0.677883,0.52677,-0.03384,0.669397,0.587386,-0.024768,0.676254,0.602076,-0.00891,0.719213,0.572067,-0.011151,0.710862,0.533368,-0.02659,0.700464,0.576064,-0.01744,0.702792,0.59673,-0.005518,0,1,0
348,'2026/05/06 10:38:50:025',2,0.675876,0.694407,0,0.62313,0.667185,-0.017313,0.585106,0.607642,-0.025203,0.586707,0.539576,-0.034481,0.621966,0.520685,-0.039097,0.623844,0.560411,0.00457,0.615567,0.514769,-0.01951,0.612793,0.562645,-0.028496,0.621618,0.577622,-0.031357,0.655505,0.560727,0.003618,0.644914,0.522018,-0.024676,0.641134,0.583625,-0.025675,0.650034,0.593414,-0.018538,0.686537,0.562856,-0.003335,0.676829,0.527334,-0.034234,0.66827,0.587772,-0.024395,0.675044,0.600906,-0.008509,0.718606,0.57128,-0.011939,0.710615,0.533555,-0.027307,0.699979,0.576747,-0.018019,0.702324,0.596241,-0.00628,0,1,0
349,'2026/05/06 10:38:50:059',2,0.675439,0.697288,0,0.621361,0.665178,-0.01586,0.584752,0.606372,-0.023641,0.586703,0.539403,-0.033757,0.621483,0.519338,-0.039294,0.627612,0.558918,0.011217,0.619011,0.514243,-0.014354,0.615027,0.561005,-0.026184,0.624245,0.578853,-0.030374,0.658002,0.560735,0.009463,0.645941,0.521478,-0.02,0.640973,0.582533,-0.023117,0.651632,0.594623,-0.01668,0.688209,0.564077,0.001225,0.677223,0.526602,-0.030014,0.666991,0.585939,-0.021695,0.674952,0.601338,-0.006104,0.719886,0.573397,-0.008664,0.710174,0.533226,-0.023106,0.698096,0.574179,-0.013984,0.701277,0.595265,-0.002031,0,1,0
350,'2026/05/06 10:38:50:089',2,0.673775,0.696265,0,0.621787,0.666305,-0.01822,0.584102,0.608595,-0.027683,0.58594,0.542206,-0.038269,0.621336,0.520339,-0.043723,0.625186,0.556551,0.002404,0.617035,0.515011,-0.022372,0.614882,0.564317,-0.031528,0.623948,0.576139,-0.034821,0.65671,0.558417,0.001215,0.644822,0.522406,-0.027489,0.641148,0.585299,-0.027711,0.651196,0.590949,-0.020391,0.686952,0.56234,-0.006071,0.677793,0.526435,-0.036626,0.668081,0.587289,-0.025133,0.675136,0.596669,-0.008629,0.718158,0.572688,-0.015221,0.711467,0.534411,-0.02924,0.698883,0.576545,-0.018756,0.700583,0.593466,-0.00662,0,1,0
351,'2026/05/06 10:38:50:117',2,0.673916,0.692661,0,0.621335,0.663891,-0.0171,0.584021,0.604786,-0.02456,0.586276,0.537739,-0.033592,0.621237,0.51689,-0.038087,0.622258,0.55857,0.006529,0.612622,0.51454,-0.017852,0.610434,0.561505,-0.027366,0.619161,0.574375,-0.030469,0.653364,0.558672,0.005406,0.64142,0.520706,-0.023314,0.638837,0.581243,-0.02467,0.648286,0.589065,-0.01748,0.684035,0.560686,-0.001908,0.673745,0.52489,-0.03314,0.666458,0.584848,-0.023775,0.673961,0.596107,-0.007939,0.716443,0.568686,-0.01091,0.70746,0.531228,-0.0259,0.697806,0.573529,-0.016781,0.70125,0.591002,-0.005171,0,1,0
352,'2026/05/06 10:38:50:151',2,0.673702,0.69165,0,0.621575,0.664962,-0.018574,0.583734,0.606456,-0.027327,0.585198,0.539217,-0.037139,0.6197,0.517702,-0.042141,0.621865,0.556805,0.002931,0.614211,0.51474,-0.020983,0.612224,0.562314,-0.029529,0.620959,0.575709,-0.032282,0.653761,0.556914,0.002347,0.642973,0.520514,-0.025815,0.640194,0.582292,-0.026088,0.649234,0.591012,-0.018616,0.684539,0.559651,-0.004341,0.675201,0.52509,-0.03501,0.667174,0.585587,-0.024457,0.673715,0.597254,-0.008366,0.716228,0.56892,-0.012816,0.708692,0.532067,-0.02762,0.698029,0.574708,-0.018067,0.699986,0.59274,-0.00644,0,1,0
353,'2026/05/06 10:38:50:180',2,0.674254,0.694202,0,0.621542,0.664368,-0.017708,0.583589,0.606272,-0.026049,0.584787,0.539152,-0.035713,0.619031,0.518138,-0.040353,0.622036,0.555007,0.005621,0.614374,0.51361,-0.018503,0.612352,0.562099,-0.02719,0.620801,0.575465,-0.02984,0.65363,0.555489,0.00456,0.642588,0.51996,-0.024416,0.639855,0.582061,-0.025481,0.649162,0.589431,-0.018122,0.684583,0.558091,-0.00268,0.673796,0.525356,-0.034131,0.666553,0.58546,-0.024459,0.674215,0.59533,-0.008509,0.716663,0.566994,-0.011576,0.707083,0.531232,-0.026476,0.697449,0.573682,-0.016986,0.701314,0.590639,-0.005091,0,1,0
354,'2026/05/06 10:38:50:211',2,0.674254,0.694202,0,0.621542,0.664368,-0.017708,0.583589,0.606272,-0.026049,0.584787,0.539152,-0.035713,0.619031,0.518138,-0.040353,0.622036,0.555007,0.005621,0.614374,0.51361,-0.018503,0.612352,0.562099,-0.02719,0.620801,0.575465,-0.02984,0.65363,0.555489,0.00456,0.642588,0.51996,-0.024416,0.639855,0.582061,-0.025481,0.649162,0.589431,-0.018122,0.684583,0.558091,-0.00268,0.673796,0.525356,-0.034131,0.666553,0.58546,-0.024459,0.674215,0.59533,-0.008509,0.716663,0.566994,-0.011576,0.707083,0.531232,-0.026476,0.697449,0.573682,-0.016986,0.701314,0.590639,-0.005091,0,1,0
355,'2026/05/06 10:38:50:244',2,0.673129,0.69364,0,0.619927,0.662394,-0.016253,0.58314,0.604888,-0.024087,0.58585,0.538626,-0.033857,0.620451,0.517454,-0.039042,0.623688,0.555302,0.008147,0.614764,0.512261,-0.015481,0.611777,0.55906,-0.02499,0.621506,0.574024,-0.02826,0.654652,0.555944,0.006505,0.642486,0.51909,-0.021938,0.638767,0.580809,-0.023566,0.649079,0.591822,-0.016659,0.685128,0.559044,-0.001261,0.673856,0.524056,-0.032039,0.664793,0.584497,-0.022696,0.672273,0.598467,-0.00696,0.716452,0.569082,-0.010618,0.706397,0.530173,-0.024974,0.694934,0.572017,-0.015456,0.697872,0.591652,-0.003583,0,1,0
356,'2026/05/06 10:38:50:277',2,0.673269,0.694581,0,0.620093,0.663726,-0.018996,0.583052,0.605387,-0.028503,0.585705,0.539342,-0.039054,0.620835,0.519547,-0.044503,0.626189,0.555944,0.00143,0.616061,0.513624,-0.02198,0.613012,0.560815,-0.029306,0.62324,0.575925,-0.031134,0.657438,0.556599,0.000797,0.643718,0.521434,-0.027897,0.639254,0.583235,-0.027916,0.650492,0.592851,-0.020217,0.687557,0.560149,-0.005832,0.674998,0.5259,-0.037089,0.66507,0.585892,-0.026465,0.672991,0.598657,-0.010158,0.718166,0.570757,-0.014269,0.708157,0.530961,-0.029562,0.69534,0.572939,-0.019961,0.697425,0.592834,-0.008074,0,1,0
357,'2026/05/06 10:38:50:299',2,0.674634,0.692816,0,0.621584,0.664824,-0.018228,0.583784,0.606518,-0.02678,0.584913,0.53921,-0.036652,0.619929,0.517992,-0.041633,0.622899,0.55709,0.00483,0.614412,0.513838,-0.020148,0.612698,0.561866,-0.029533,0.621609,0.575391,-0.032523,0.654574,0.557676,0.003889,0.642561,0.520577,-0.025705,0.640264,0.582713,-0.026904,0.650204,0.590093,-0.019544,0.685397,0.560315,-0.003338,0.674549,0.525538,-0.035469,0.667105,0.586188,-0.025457,0.674923,0.596527,-0.009102,0.717243,0.569192,-0.01229,0.707755,0.532248,-0.027753,0.69759,0.575318,-0.018161,0.70084,0.59319,-0.006116,0,1,0
358,'2026/05/06 10:38:50:339',2,0.674754,0.696225,0,0.62178,0.663295,-0.018416,0.584715,0.604035,-0.027116,0.586315,0.53855,-0.037265,0.621354,0.517628,-0.042436,0.625387,0.554108,0.0062,0.615141,0.512015,-0.018055,0.612157,0.559405,-0.027671,0.623277,0.572785,-0.030978,0.656464,0.556272,0.005584,0.643508,0.519818,-0.023879,0.63873,0.582836,-0.02557,0.650716,0.59205,-0.018341,0.687024,0.560257,-0.001408,0.674525,0.525599,-0.032871,0.664616,0.586191,-0.023764,0.674395,0.598752,-0.007773,0.718573,0.570268,-0.010184,0.708046,0.53003,-0.024737,0.696152,0.571078,-0.015458,0.700456,0.590516,-0.00352,0,1,0
359,'2026/05/06 10:38:50:373',2,0.673766,0.69216,0,0.621326,0.662021,-0.017341,0.584826,0.605602,-0.025516,0.586627,0.539801,-0.035351,0.620642,0.516954,-0.040675,0.62326,0.557381,0.007564,0.614269,0.514585,-0.017961,0.611698,0.561374,-0.028942,0.620104,0.57491,-0.032873,0.654005,0.557802,0.006292,0.642312,0.520199,-0.023388,0.639263,0.580229,-0.025989,0.648853,0.588111,-0.019426,0.684421,0.560061,-0.001323,0.67405,0.524781,-0.033315,0.666244,0.584315,-0.024485,0.673903,0.594954,-0.008734,0.716718,0.568187,-0.010637,0.707451,0.532162,-0.025921,0.69719,0.574542,-0.016719,0.70069,0.591632,-0.004826,0,1,0
360,'2026/05/06 10:38:50:403',2,0.674958,0.693812,0,0.621674,0.664337,-0.018667,0.584071,0.603799,-0.027379,0.586727,0.536744,-0.037225,0.622784,0.51671,-0.0421,0.625485,0.556058,0.003198,0.614671,0.513949,-0.020635,0.611835,0.561005,-0.02871,0.623002,0.575664,-0.030978,0.656814,0.556425,0.002765,0.643358,0.5211,-0.026539,0.638677,0.584066,-0.026931,0.65039,0.59379,-0.018901,0.687347,0.559421,-0.003827,0.674556,0.52623,-0.035632,0.664574,0.587248,-0.025836,0.67392,0.599647,-0.009514,0.718614,0.569101,-0.012149,0.707667,0.532408,-0.027701,0.696171,0.57393,-0.018943,0.700641,0.591885,-0.007406,0,1,0
361,'2026/05/06 10:38:50:432',2,0.674388,0.692994,0,0.620533,0.663635,-0.018948,0.583502,0.604026,-0.028299,0.586301,0.537073,-0.038695,0.621896,0.517595,-0.044039,0.625472,0.555426,0.001923,0.61578,0.514168,-0.02169,0.612888,0.56077,-0.029522,0.623068,0.576232,-0.031718,0.656665,0.556006,0.001554,0.64318,0.521306,-0.027447,0.63867,0.583518,-0.027959,0.649713,0.592944,-0.020414,0.686902,0.559192,-0.004844,0.674532,0.526135,-0.036274,0.664256,0.586042,-0.026225,0.672237,0.597682,-0.010143,0.717821,0.568853,-0.012978,0.707773,0.53091,-0.027959,0.695293,0.572662,-0.018607,0.697994,0.591291,-0.006941,0,1,0
362,'2026/05/06 10:38:50:469',2,0.671968,0.693386,0,0.620057,0.663501,-0.019555,0.583084,0.603505,-0.028829,0.585916,0.537423,-0.038787,0.621796,0.517619,-0.043821,0.623182,0.556609,-0.000533,0.613811,0.51499,-0.023249,0.610865,0.562775,-0.030151,0.621981,0.577736,-0.032035,0.654906,0.556529,-0.000292,0.642623,0.522309,-0.028388,0.637928,0.584211,-0.028208,0.649263,0.593434,-0.020658,0.685896,0.559453,-0.005908,0.67438,0.526103,-0.036697,0.664091,0.58576,-0.026582,0.672674,0.598441,-0.010875,0.717534,0.569271,-0.0133,0.708311,0.529837,-0.028814,0.695684,0.571277,-0.019987,0.698443,0.590978,-0.008786,0,1,0
363,'2026/05/06 10:38:50:495',2,0.671917,0.693369,0,0.620351,0.662736,-0.017936,0.583843,0.604693,-0.026881,0.585612,0.539322,-0.037139,0.620134,0.519387,-0.042558,0.622606,0.553469,0.004171,0.6124,0.512094,-0.019574,0.610118,0.559094,-0.027903,0.62044,0.573307,-0.030251,0.65405,0.55394,0.003241,0.641367,0.519445,-0.02547,0.638134,0.58187,-0.026154,0.648862,0.591214,-0.018419,0.685024,0.557595,-0.003768,0.672532,0.525834,-0.0347,0.664216,0.586187,-0.025135,0.672716,0.59765,-0.009233,0.716617,0.568102,-0.012426,0.70579,0.531458,-0.026728,0.69507,0.57342,-0.017245,0.698831,0.590985,-0.005399,0,1,0
364,'2026/05/06 10:38:50:538',2,0.675532,0.693172,0,0.621194,0.665107,-0.019437,0.583124,0.604399,-0.028511,0.585835,0.536965,-0.038557,0.621097,0.517921,-0.043536,0.623036,0.555932,0.002628,0.614981,0.512751,-0.021461,0.612155,0.5605,-0.029892,0.621471,0.575568,-0.032349,0.654485,0.556741,0.002645,0.643496,0.520673,-0.026798,0.63902,0.583417,-0.028033,0.64844,0.592318,-0.02073,0.685143,0.55949,-0.003493,0.674823,0.52503,-0.035382,0.665086,0.585851,-0.02597,0.672433,0.597774,-0.010039,0.716439,0.568019,-0.011407,0.70738,0.530526,-0.027042,0.696037,0.57302,-0.018325,0.698882,0.591748,-0.006905,0,1,0
365,'2026/05/06 10:38:50:575',2,0.672751,0.698481,0,0.61991,0.664756,-0.017293,0.583732,0.604647,-0.025782,0.586579,0.537429,-0.035873,0.622026,0.518168,-0.041065,0.625855,0.554414,0.006262,0.614392,0.512482,-0.016677,0.611492,0.559615,-0.025102,0.622707,0.572347,-0.027843,0.656772,0.555476,0.005128,0.64198,0.520168,-0.022651,0.638225,0.583002,-0.022821,0.65108,0.59132,-0.015038,0.687025,0.559528,-0.002177,0.673644,0.524511,-0.032595,0.664037,0.585334,-0.022831,0.674035,0.598204,-0.006895,0.718132,0.57034,-0.011181,0.707753,0.529689,-0.025404,0.695293,0.57079,-0.015923,0.699129,0.590658,-0.004062,0,1,0
366,'2026/05/06 10:38:50:612',2,0.672751,0.698481,0,0.61991,0.664756,-0.017293,0.583732,0.604647,-0.025782,0.586579,0.537429,-0.035873,0.622026,0.518168,-0.041065,0.625855,0.554414,0.006262,0.614392,0.512482,-0.016677,0.611492,0.559615,-0.025102,0.622707,0.572347,-0.027843,0.656772,0.555476,0.005128,0.64198,0.520168,-0.022651,0.638225,0.583002,-0.022821,0.65108,0.59132,-0.015038,0.687025,0.559528,-0.002177,0.673644,0.524511,-0.032595,0.664037,0.585334,-0.022831,0.674035,0.598204,-0.006895,0.718132,0.57034,-0.011181,0.707753,0.529689,-0.025404,0.695293,0.57079,-0.015923,0.699129,0.590658,-0.004062,0,1,0
367,'2026/05/06 10:38:50:644',2,0.674788,0.692293,0,0.622727,0.665701,-0.017864,0.584394,0.606565,-0.025967,0.585627,0.538378,-0.035239,0.620191,0.518693,-0.039794,0.622982,0.557965,0.003393,0.615377,0.5145,-0.019818,0.613761,0.562399,-0.027691,0.621976,0.574646,-0.030086,0.654856,0.558183,0.002402,0.644074,0.521537,-0.025531,0.641387,0.582944,-0.0258,0.649933,0.589809,-0.018278,0.685661,0.560697,-0.004544,0.676493,0.525586,-0.035395,0.668526,0.586059,-0.024997,0.674602,0.596403,-0.008891,0.717337,0.569426,-0.013165,0.710202,0.532585,-0.028084,0.699495,0.575406,-0.018322,0.701037,0.592947,-0.006467,0,1,0
368,'2026/05/06 10:38:50:673',2,0.675059,0.693088,0,0.622945,0.664212,-0.018019,0.585549,0.605611,-0.026652,0.58681,0.539072,-0.036536,0.622039,0.518189,-0.041716,0.622844,0.557117,0.003796,0.61268,0.513209,-0.020746,0.611547,0.560724,-0.030013,0.621625,0.574555,-0.032996,0.654716,0.557485,0.003086,0.642141,0.520377,-0.0256,0.640211,0.582515,-0.026399,0.65037,0.591655,-0.018993,0.68587,0.560133,-0.003764,0.674168,0.526309,-0.034921,0.666905,0.587082,-0.025204,0.674915,0.599168,-0.00927,0.717939,0.569056,-0.012304,0.70788,0.531953,-0.027473,0.697973,0.574828,-0.018278,0.701258,0.59343,-0.006601,0,1,0
369,'2026/05/06 10:38:50:699',2,0.674649,0.693438,0,0.623014,0.664018,-0.017669,0.585359,0.605612,-0.02574,0.586926,0.538383,-0.035192,0.62192,0.518173,-0.040026,0.622265,0.559564,0.005198,0.614117,0.513831,-0.02008,0.611648,0.56179,-0.030289,0.620204,0.575177,-0.033837,0.653751,0.55969,0.004293,0.643689,0.52019,-0.025,0.640297,0.581341,-0.026594,0.648674,0.590168,-0.019484,0.684617,0.561411,-0.002809,0.675308,0.525829,-0.033952,0.667456,0.585734,-0.024385,0.674428,0.597223,-0.008442,0.71665,0.569204,-0.011665,0.708337,0.533366,-0.026508,0.698771,0.575406,-0.017351,0.702102,0.592774,-0.005693,0,1,0
370,'2026/05/06 10:38:50:731',2,0.6759,0.695575,0,0.622406,0.66578,-0.018599,0.585007,0.605733,-0.027136,0.587685,0.538216,-0.036843,0.623352,0.519151,-0.041718,0.625382,0.556762,0.005496,0.617418,0.516368,-0.017866,0.61444,0.563285,-0.026658,0.624215,0.57678,-0.029529,0.656854,0.557353,0.005155,0.645349,0.522969,-0.023192,0.641503,0.584811,-0.024287,0.652046,0.593401,-0.016904,0.68739,0.560711,-0.001409,0.67653,0.528307,-0.032194,0.667611,0.587865,-0.023109,0.675822,0.599197,-0.00748,0.718719,0.57081,-0.009705,0.709659,0.533239,-0.024084,0.698624,0.574455,-0.014969,0.701846,0.592669,-0.003351,0,1,0
371,'2026/05/06 10:38:50:762',2,0.677342,0.694527,0,0.624057,0.664936,-0.017539,0.585734,0.607508,-0.025865,0.586801,0.540289,-0.035659,0.620992,0.518816,-0.040677,0.623502,0.556811,0.006871,0.615343,0.513661,-0.017898,0.613164,0.561983,-0.028274,0.621934,0.575734,-0.032099,0.655361,0.55723,0.005564,0.644719,0.519313,-0.023117,0.641743,0.580639,-0.025001,0.650517,0.589615,-0.018388,0.686157,0.560259,-0.002018,0.677061,0.525482,-0.033166,0.668837,0.585624,-0.023498,0.675061,0.597402,-0.007679,0.718091,0.569917,-0.011334,0.710391,0.534187,-0.026046,0.699062,0.577228,-0.016322,0.700446,0.595597,-0.004388,0,1,0
372,'2026/05/06 10:38:50:795',2,0.676225,0.696555,0,0.622688,0.665548,-0.018263,0.585999,0.605732,-0.02696,0.58858,0.539014,-0.036865,0.623942,0.518924,-0.041613,0.627462,0.556042,0.004433,0.618514,0.514115,-0.018433,0.615027,0.561479,-0.026049,0.624652,0.576557,-0.0281,0.658488,0.557239,0.003813,0.645477,0.522581,-0.024349,0.640972,0.585276,-0.024904,0.652137,0.594468,-0.017459,0.688861,0.561008,-0.002882,0.67717,0.526844,-0.033575,0.66714,0.587228,-0.023605,0.675182,0.599831,-0.007667,0.719866,0.571341,-0.011307,0.710791,0.531998,-0.02583,0.697974,0.573979,-0.016232,0.700097,0.593629,-0.00436,0,1,0
373,'2026/05/06 10:38:50:827',2,0.675022,0.694982,0,0.622878,0.663234,-0.017499,0.58594,0.605301,-0.026202,0.586798,0.538503,-0.036554,0.621844,0.51847,-0.042441,0.622986,0.558396,0.007089,0.613717,0.513469,-0.018289,0.612191,0.560264,-0.029109,0.621176,0.576006,-0.032694,0.654462,0.558653,0.006123,0.643068,0.520467,-0.022941,0.641439,0.580952,-0.025326,0.650621,0.591717,-0.01857,0.685742,0.561095,-0.00113,0.675491,0.52654,-0.032243,0.669175,0.585491,-0.023907,0.676144,0.598954,-0.008493,0.718258,0.569732,-0.01005,0.709401,0.531966,-0.024707,0.700591,0.573665,-0.015726,0.703749,0.592719,-0.003978,0,1,0
374,'2026/05/06 10:38:50:859',2,0.675038,0.693782,0,0.622533,0.665367,-0.018316,0.585969,0.606251,-0.027221,0.58814,0.539179,-0.037284,0.622868,0.518255,-0.042313,0.626402,0.556276,0.002438,0.618082,0.513381,-0.021396,0.616029,0.562797,-0.029331,0.625315,0.577547,-0.031597,0.65778,0.556902,0.001665,0.645475,0.521072,-0.026657,0.642403,0.584275,-0.026498,0.652739,0.592512,-0.018745,0.688127,0.560291,-0.005182,0.677152,0.525386,-0.035851,0.668388,0.586831,-0.025074,0.675849,0.598392,-0.008922,0.718968,0.57036,-0.013808,0.710083,0.533198,-0.028722,0.698563,0.575683,-0.01931,0.701097,0.593724,-0.007776,0,1,0
375,'2026/05/06 10:38:50:896',2,0.674888,0.695921,0,0.622003,0.665059,-0.018361,0.585465,0.605552,-0.026874,0.587715,0.538551,-0.03667,0.622597,0.518461,-0.041424,0.625189,0.555722,0.006116,0.616216,0.512873,-0.017192,0.613251,0.560341,-0.025294,0.62322,0.574439,-0.027448,0.656336,0.556269,0.005697,0.644305,0.520149,-0.022708,0.640467,0.583249,-0.023268,0.651545,0.591951,-0.015299,0.686876,0.559555,-0.001004,0.675951,0.525919,-0.032006,0.666937,0.586619,-0.022533,0.675502,0.598217,-0.006453,0.718206,0.56921,-0.009406,0.709512,0.53104,-0.023761,0.698101,0.572821,-0.014336,0.701174,0.591112,-0.002375,0,1,0
376,'2026/05/06 10:38:50:931',2,0.67526,0.695786,0,0.62247,0.665377,-0.017773,0.58496,0.606102,-0.026261,0.587101,0.538099,-0.036111,0.621771,0.519869,-0.040722,0.627995,0.556052,0.005406,0.62092,0.512695,-0.018778,0.617141,0.562411,-0.027743,0.625233,0.576222,-0.030632,0.658339,0.557975,0.004363,0.647181,0.520304,-0.024536,0.642225,0.583489,-0.025159,0.651944,0.591575,-0.017458,0.687797,0.561232,-0.002925,0.677365,0.525244,-0.033575,0.667797,0.585949,-0.023183,0.675691,0.597828,-0.006855,0.718567,0.570819,-0.012053,0.70952,0.533175,-0.026289,0.698706,0.574228,-0.016809,0.702751,0.592232,-0.005017,0,1,0
377,'2026/05/06 10:38:50:956',2,0.673931,0.694155,0,0.622234,0.665331,-0.018435,0.585381,0.605417,-0.027146,0.588347,0.538477,-0.036921,0.624377,0.520091,-0.041642,0.627747,0.555631,0.002203,0.619789,0.513832,-0.021128,0.616082,0.561816,-0.028615,0.625095,0.576564,-0.030641,0.658903,0.557261,0.001587,0.64739,0.522525,-0.026492,0.641681,0.583925,-0.026502,0.651478,0.592125,-0.018977,0.688886,0.561457,-0.004989,0.678704,0.527631,-0.035479,0.667704,0.586772,-0.024758,0.674828,0.598076,-0.008679,0.719502,0.572508,-0.013347,0.711461,0.534456,-0.02787,0.698302,0.575926,-0.018105,0.700239,0.594615,-0.006348,0,1,0
378,'2026/05/06 10:38:50:987',2,0.673931,0.694155,0,0.622234,0.665331,-0.018435,0.585381,0.605417,-0.027146,0.588347,0.538477,-0.036921,0.624377,0.520091,-0.041642,0.627747,0.555631,0.002203,0.619789,0.513832,-0.021128,0.616082,0.561816,-0.028615,0.625095,0.576564,-0.030641,0.658903,0.557261,0.001587,0.64739,0.522525,-0.026492,0.641681,0.583925,-0.026502,0.651478,0.592125,-0.018977,0.688886,0.561457,-0.004989,0.678704,0.527631,-0.035479,0.667704,0.586772,-0.024758,0.674828,0.598076,-0.008679,0.719502,0.572508,-0.013347,0.711461,0.534456,-0.02787,0.698302,0.575926,-0.018105,0.700239,0.594615,-0.006348,0,1,0
379,'2026/05/06 10:38:51:020',2,0.675838,0.694679,0,0.622878,0.664903,-0.017171,0.585507,0.606545,-0.025526,0.586974,0.539931,-0.035543,0.621528,0.518269,-0.040846,0.625598,0.556551,0.007079,0.616346,0.514101,-0.018001,0.614496,0.562436,-0.028583,0.623159,0.57522,-0.032449,0.656401,0.558194,0.005568,0.643872,0.521409,-0.023374,0.641576,0.58287,-0.024959,0.651325,0.58992,-0.017991,0.686317,0.561967,-0.002279,0.676385,0.526106,-0.033204,0.668321,0.586287,-0.023147,0.675062,0.596482,-0.007018,0.717451,0.571801,-0.011908,0.709942,0.534606,-0.025956,0.698855,0.576595,-0.015932,0.700791,0.593636,-0.003814,0,1,0
380,'2026/05/06 10:38:51:066',2,0.677107,0.697011,0,0.623768,0.667294,-0.018311,0.586027,0.606849,-0.027,0.589034,0.538153,-0.036916,0.624908,0.518358,-0.041768,0.628499,0.559973,0.003425,0.619128,0.515684,-0.020083,0.615967,0.563785,-0.028042,0.626532,0.580427,-0.030246,0.659809,0.559784,0.002818,0.646868,0.523161,-0.025797,0.641774,0.584821,-0.026456,0.652458,0.595543,-0.019114,0.689734,0.561795,-0.003845,0.677983,0.526951,-0.035076,0.667282,0.586668,-0.025407,0.674853,0.600818,-0.009589,0.720185,0.570456,-0.01223,0.71077,0.532366,-0.027476,0.697697,0.573544,-0.018647,0.699773,0.59365,-0.007284,0,1,0
381,'2026/05/06 10:38:51:097',2,0.676318,0.6977,0,0.62318,0.665195,-0.01892,0.586077,0.605828,-0.027916,0.588654,0.538995,-0.037873,0.623937,0.519264,-0.042451,0.628227,0.556266,0.003113,0.619405,0.513497,-0.021155,0.615873,0.562989,-0.030042,0.625686,0.576375,-0.033009,0.659052,0.557961,0.00272,0.647025,0.521553,-0.026485,0.641902,0.584644,-0.027227,0.652735,0.593322,-0.019858,0.689016,0.561184,-0.00387,0.678096,0.526219,-0.034953,0.66779,0.586821,-0.02461,0.67641,0.59898,-0.008363,0.719727,0.570917,-0.012338,0.710718,0.533184,-0.026954,0.698604,0.574462,-0.017536,0.702185,0.592788,-0.005802,0,1,0
382,'2026/05/06 10:38:51:130',2,0.677414,0.694393,0,0.624549,0.666453,-0.018097,0.586756,0.608438,-0.026679,0.588178,0.540836,-0.03629,0.623163,0.51922,-0.040818,0.624659,0.558962,0.003601,0.617127,0.515655,-0.020057,0.6158,0.564056,-0.028386,0.624899,0.577731,-0.031036,0.656353,0.559016,0.002886,0.645682,0.522097,-0.025222,0.643093,0.584763,-0.025714,0.652116,0.593015,-0.018397,0.686972,0.56141,-0.003838,0.678113,0.526588,-0.034179,0.670009,0.587284,-0.023585,0.676332,0.598543,-0.007511,0.718587,0.570549,-0.012333,0.711837,0.533935,-0.02688,0.701033,0.576396,-0.017259,0.702762,0.594085,-0.005563,0,1,0
383,'2026/05/06 10:38:51:166',2,0.674956,0.693762,0,0.622146,0.664977,-0.018146,0.5854,0.606231,-0.026231,0.588191,0.539033,-0.035526,0.624036,0.519538,-0.040049,0.624017,0.557768,0.005311,0.614639,0.514648,-0.017868,0.612576,0.561222,-0.026478,0.623113,0.574326,-0.02931,0.655619,0.557533,0.004822,0.643492,0.521357,-0.023161,0.640527,0.583169,-0.023922,0.651594,0.591668,-0.016503,0.68638,0.560324,-0.00181,0.675288,0.526708,-0.032744,0.666907,0.586747,-0.023315,0.675263,0.598546,-0.007486,0.718058,0.56993,-0.01013,0.708892,0.531592,-0.025154,0.697484,0.573775,-0.015946,0.700111,0.593188,-0.00419,0,1,0
384,'2026/05/06 10:38:51:194',2,0.67587,0.694053,0,0.622953,0.666171,-0.017895,0.585657,0.605439,-0.025571,0.588575,0.537678,-0.034452,0.623592,0.520032,-0.038483,0.62694,0.557471,0.004674,0.61843,0.514758,-0.017848,0.614937,0.562071,-0.025578,0.624091,0.576399,-0.027792,0.658045,0.558044,0.004319,0.646407,0.52326,-0.023193,0.64179,0.585385,-0.023514,0.651878,0.594265,-0.016006,0.688218,0.561003,-0.002073,0.677524,0.527042,-0.032348,0.667735,0.587603,-0.022593,0.675411,0.600402,-0.006832,0.719146,0.570276,-0.010163,0.710307,0.532541,-0.024718,0.698699,0.574241,-0.015714,0.701699,0.592902,-0.004325,0,1,0
385,'2026/05/06 10:38:51:224',2,0.674823,0.696403,0,0.622608,0.665474,-0.019182,0.585802,0.605973,-0.028298,0.588477,0.539732,-0.038368,0.623215,0.520707,-0.043186,0.627898,0.555221,0.002917,0.618567,0.51413,-0.020801,0.615173,0.561926,-0.028708,0.625638,0.57469,-0.031009,0.658965,0.556484,0.002502,0.6457,0.523094,-0.026875,0.64122,0.585567,-0.027144,0.653299,0.592767,-0.019173,0.688968,0.559894,-0.004146,0.676277,0.528648,-0.035753,0.666455,0.588697,-0.025812,0.675998,0.59835,-0.009641,0.719682,0.569715,-0.012605,0.708993,0.534405,-0.027356,0.697079,0.575593,-0.018152,0.701413,0.59179,-0.006522,0,1,0
386,'2026/05/06 10:38:51:258',2,0.674444,0.697181,0,0.620994,0.665004,-0.017697,0.584793,0.605219,-0.025849,0.587562,0.53861,-0.035623,0.622307,0.519056,-0.040593,0.626803,0.559089,0.007764,0.616522,0.516075,-0.015544,0.612724,0.562167,-0.024673,0.623553,0.576902,-0.027663,0.657397,0.559667,0.007036,0.644624,0.521937,-0.021634,0.639799,0.58378,-0.023193,0.652232,0.59451,-0.015913,0.687552,0.562762,0.00001,0.675484,0.527168,-0.031225,0.665679,0.587009,-0.022492,0.675737,0.601637,-0.006706,0.718889,0.57236,-0.008726,0.708605,0.531726,-0.023719,0.696417,0.572626,-0.014942,0.700466,0.593507,-0.003286,0,1,0
387,'2026/05/06 10:38:51:292',2,0.675544,0.69107,0,0.623195,0.662289,-0.016327,0.58607,0.605563,-0.023427,0.587742,0.539103,-0.03223,0.622371,0.518826,-0.036772,0.623494,0.560809,0.008212,0.61307,0.51664,-0.015253,0.611286,0.562973,-0.024878,0.620537,0.577225,-0.028131,0.654966,0.560115,0.006982,0.643382,0.521925,-0.020102,0.640877,0.580977,-0.021611,0.649619,0.590885,-0.014938,0.685652,0.561868,-0.000338,0.676091,0.527124,-0.030194,0.668903,0.58546,-0.021142,0.675571,0.598791,-0.005845,0.717908,0.570108,-0.009301,0.709789,0.532855,-0.023615,0.699439,0.574632,-0.014415,0.701305,0.593766,-0.002878,0,1,0
388,'2026/05/06 10:38:51:319',2,0.676656,0.69528,0,0.62291,0.666851,-0.01878,0.58576,0.607278,-0.027561,0.588799,0.539523,-0.037343,0.623997,0.518753,-0.041959,0.625442,0.557286,0.003301,0.618345,0.513671,-0.02047,0.615218,0.562198,-0.028546,0.624174,0.576765,-0.030797,0.656931,0.557852,0.003071,0.646227,0.521965,-0.025377,0.641575,0.584712,-0.025734,0.651267,0.593285,-0.018131,0.687328,0.560755,-0.003311,0.677764,0.526519,-0.034419,0.667585,0.587526,-0.024211,0.674661,0.599657,-0.008056,0.718574,0.570064,-0.011452,0.710853,0.532889,-0.026545,0.698211,0.575691,-0.017229,0.699937,0.594779,-0.005513,0,1,0
389,'2026/05/06 10:38:51:350',2,0.675906,0.692781,0,0.623139,0.664272,-0.018332,0.586058,0.606185,-0.026911,0.587935,0.540212,-0.036585,0.622141,0.518928,-0.041691,0.621608,0.558533,0.003838,0.612425,0.515169,-0.021081,0.611152,0.561974,-0.030648,0.620302,0.575247,-0.033802,0.653383,0.558572,0.00314,0.642334,0.52115,-0.025654,0.640371,0.582496,-0.026757,0.649448,0.59036,-0.019506,0.684951,0.56091,-0.003721,0.675145,0.527294,-0.035153,0.668593,0.587285,-0.025496,0.675854,0.59771,-0.009604,0.717896,0.569524,-0.012308,0.708858,0.533303,-0.027908,0.699793,0.576565,-0.018633,0.702795,0.593983,-0.006858,0,1,0
390,'2026/05/06 10:38:51:384',2,0.675906,0.692781,0,0.623139,0.664272,-0.018332,0.586058,0.606185,-0.026911,0.587935,0.540212,-0.036585,0.622141,0.518928,-0.041691,0.621608,0.558533,0.003838,0.612425,0.515169,-0.021081,0.611152,0.561974,-0.030648,0.620302,0.575247,-0.033802,0.653383,0.558572,0.00314,0.642334,0.52115,-0.025654,0.640371,0.582496,-0.026757,0.649448,0.59036,-0.019506,0.684951,0.56091,-0.003721,0.675145,0.527294,-0.035153,0.668593,0.587285,-0.025496,0.675854,0.59771,-0.009604,0.717896,0.569524,-0.012308,0.708858,0.533303,-0.027908,0.699793,0.576565,-0.018633,0.702795,0.593983,-0.006858,0,1,0
391,'2026/05/06 10:38:51:418',2,0.675305,0.697232,0,0.622074,0.664481,-0.017167,0.585752,0.606301,-0.024692,0.587734,0.539824,-0.033879,0.62146,0.519653,-0.038326,0.62527,0.558765,0.009144,0.61594,0.515154,-0.015023,0.613603,0.562608,-0.025514,0.623709,0.577878,-0.02922,0.656078,0.559493,0.008215,0.645136,0.521472,-0.019882,0.641143,0.582453,-0.022058,0.651595,0.592751,-0.015438,0.686662,0.561963,0.000904,0.677151,0.526721,-0.029514,0.668039,0.585718,-0.020805,0.676008,0.599666,-0.005344,0.718884,0.570518,-0.008187,0.710647,0.532421,-0.022346,0.699138,0.573408,-0.013102,0.701886,0.593154,-0.001276,0,1,0
392,'2026/05/06 10:38:51:461',2,0.674097,0.693533,0,0.622485,0.663438,-0.018228,0.585798,0.606718,-0.026996,0.588709,0.541475,-0.036988,0.622758,0.51944,-0.042434,0.624956,0.558426,0.00423,0.614604,0.515567,-0.019572,0.612248,0.562513,-0.028802,0.622617,0.576059,-0.03198,0.65642,0.559226,0.003512,0.643867,0.521627,-0.024945,0.6406,0.582674,-0.026091,0.651894,0.59254,-0.018944,0.687265,0.562047,-0.003313,0.675899,0.527278,-0.034174,0.667879,0.586439,-0.02497,0.676608,0.599766,-0.00946,0.719551,0.570966,-0.011896,0.708988,0.532974,-0.027129,0.698661,0.574645,-0.018269,0.702367,0.594303,-0.006821,0,1,0
393,'2026/05/06 10:38:51:493',2,0.673875,0.695788,0,0.621647,0.663992,-0.015713,0.58501,0.606119,-0.023288,0.587504,0.539383,-0.03297,0.623124,0.519006,-0.038242,0.625649,0.559572,0.009685,0.616422,0.515143,-0.014064,0.612422,0.560584,-0.023981,0.621549,0.575891,-0.027326,0.656329,0.560119,0.008136,0.644004,0.520631,-0.020287,0.63941,0.581345,-0.022288,0.649811,0.593277,-0.015338,0.686833,0.562761,0.000415,0.674661,0.525707,-0.030269,0.665451,0.585211,-0.021838,0.673874,0.600693,-0.006437,0.718763,0.571916,-0.008844,0.7074,0.53206,-0.023603,0.696749,0.573402,-0.014955,0.701236,0.594313,-0.003462,0,1,0
394,'2026/05/06 10:38:51:528',2,0.676162,0.69524,0,0.622752,0.666046,-0.018566,0.585694,0.607464,-0.027258,0.588401,0.540985,-0.037186,0.623678,0.519148,-0.041931,0.625946,0.557539,0.004714,0.618133,0.514763,-0.019543,0.615434,0.562968,-0.02822,0.625289,0.577511,-0.03081,0.657173,0.558494,0.00407,0.64563,0.522875,-0.025455,0.64157,0.585547,-0.026615,0.652374,0.593537,-0.019271,0.687606,0.561432,-0.002834,0.677244,0.527207,-0.034668,0.667436,0.587658,-0.024705,0.675269,0.598592,-0.008436,0.718841,0.570718,-0.011538,0.710274,0.533402,-0.026719,0.697812,0.575351,-0.017283,0.699986,0.593682,-0.005352,0,1,0
395,'2026/05/06 10:38:51:557',2,0.675102,0.698665,0,0.620501,0.665406,-0.017072,0.584332,0.604985,-0.025111,0.587927,0.537129,-0.034865,0.624164,0.519336,-0.039547,0.627412,0.559076,0.007316,0.61791,0.515439,-0.015611,0.614163,0.563058,-0.023835,0.624635,0.577916,-0.026286,0.657953,0.560291,0.006357,0.645088,0.523078,-0.02196,0.63987,0.585875,-0.022829,0.651575,0.595018,-0.015335,0.688068,0.563268,-0.000783,0.676549,0.526554,-0.031446,0.665741,0.587323,-0.021886,0.674839,0.60099,-0.005895,0.719114,0.57261,-0.009617,0.709909,0.532291,-0.023757,0.697368,0.573363,-0.014462,0.70101,0.593248,-0.002725,0,1,0
396,'2026/05/06 10:38:51:587',2,0.675971,0.698183,0,0.622296,0.668296,-0.019446,0.584621,0.606974,-0.028863,0.587117,0.538625,-0.039029,0.623825,0.518502,-0.043939,0.62368,0.558907,0.001235,0.614896,0.517005,-0.021429,0.613106,0.565418,-0.027905,0.623118,0.582462,-0.029128,0.655462,0.558218,0.001431,0.643625,0.523717,-0.02655,0.640249,0.58666,-0.026528,0.650282,0.596294,-0.018875,0.686372,0.560707,-0.004304,0.676011,0.527643,-0.035356,0.666712,0.588122,-0.025436,0.673597,0.60016,-0.009688,0.717738,0.570084,-0.011738,0.709881,0.532363,-0.026969,0.697514,0.57515,-0.01787,0.698745,0.593993,-0.006467,0,1,0
397,'2026/05/06 10:38:51:622',2,0.675897,0.693918,0,0.622233,0.667967,-0.018235,0.584099,0.607376,-0.026317,0.586915,0.538941,-0.035517,0.62227,0.519239,-0.039711,0.622604,0.558473,0.004478,0.6152,0.515482,-0.019266,0.613585,0.563101,-0.027776,0.622561,0.578395,-0.030252,0.654473,0.558722,0.004117,0.643814,0.52299,-0.024454,0.640879,0.585073,-0.025782,0.649484,0.593706,-0.018748,0.685396,0.561352,-0.002338,0.676058,0.526939,-0.033436,0.667556,0.58737,-0.024149,0.673692,0.598684,-0.008571,0.716846,0.569881,-0.010455,0.709145,0.533744,-0.025611,0.698372,0.576204,-0.016927,0.700285,0.593771,-0.005681,0,1,0
398,'2026/05/06 10:38:51:652',2,0.674371,0.69408,0,0.621015,0.665347,-0.017108,0.584195,0.606276,-0.024939,0.587337,0.538816,-0.034246,0.622814,0.51901,-0.038821,0.624201,0.558365,0.006348,0.615577,0.516113,-0.016417,0.613328,0.562513,-0.024721,0.622898,0.576371,-0.027361,0.655396,0.558315,0.005452,0.642652,0.522741,-0.022491,0.640159,0.584594,-0.023498,0.650763,0.593208,-0.016274,0.68609,0.560662,-0.00146,0.674473,0.526557,-0.032103,0.666626,0.586964,-0.022827,0.67463,0.598658,-0.007238,0.717667,0.569491,-0.009947,0.708042,0.531249,-0.024524,0.697586,0.573399,-0.015317,0.700721,0.591759,-0.00369,0,1,0
399,'2026/05/06 10:38:51:683',2,0.674926,0.698142,0,0.621085,0.666593,-0.018056,0.583964,0.606459,-0.026803,0.586869,0.539536,-0.037092,0.622855,0.518862,-0.04234,0.625263,0.557635,0.006202,0.616523,0.514697,-0.018279,0.612663,0.562261,-0.027332,0.622766,0.577526,-0.030062,0.655949,0.55839,0.005378,0.643575,0.522285,-0.024562,0.638229,0.585464,-0.026034,0.64958,0.594378,-0.01847,0.686111,0.561125,-0.001787,0.674174,0.527433,-0.034314,0.663442,0.588577,-0.025146,0.672435,0.600568,-0.008877,0.71733,0.570135,-0.010604,0.707062,0.532376,-0.026049,0.694855,0.574428,-0.016913,0.698867,0.593027,-0.004918,0,1,0
400,'2026/05/06 10:38:51:715',2,0.673653,0.698564,0,0.61992,0.666531,-0.018505,0.583832,0.60688,-0.027461,0.587664,0.540274,-0.03754,0.622708,0.519802,-0.042394,0.62644,0.556641,0.003878,0.616555,0.513676,-0.019397,0.612887,0.561123,-0.027171,0.622838,0.576313,-0.029227,0.65701,0.557762,0.003403,0.643283,0.523111,-0.025148,0.638741,0.586497,-0.025612,0.650423,0.595342,-0.017923,0.687126,0.561323,-0.003177,0.674784,0.528185,-0.034401,0.66449,0.589328,-0.02446,0.673214,0.60164,-0.008311,0.718271,0.571446,-0.011494,0.708616,0.533014,-0.026475,0.69567,0.575289,-0.017058,0.698437,0.594507,-0.00512,0,1,0
401,'2026/05/06 10:38:51:746',2,0.676719,0.694133,0,0.622422,0.665998,-0.017624,0.584186,0.607342,-0.025736,0.585999,0.539809,-0.035041,0.620908,0.518901,-0.039478,0.622414,0.558925,0.005997,0.613826,0.517831,-0.017386,0.612916,0.564279,-0.026276,0.622846,0.578783,-0.029118,0.653855,0.558808,0.00535,0.642748,0.523203,-0.022976,0.640832,0.585317,-0.02472,0.650164,0.594741,-0.017862,0.684809,0.560848,-0.001321,0.675088,0.527371,-0.031955,0.667728,0.587712,-0.022931,0.674447,0.599774,-0.007454,0.716623,0.569345,-0.009628,0.708436,0.533059,-0.024125,0.698487,0.575312,-0.01506,0.700774,0.593355,-0.003497,0,1,0
402,'2026/05/06 10:38:51:783',2,0.676719,0.694133,0,0.622422,0.665998,-0.017624,0.584186,0.607342,-0.025736,0.585999,0.539809,-0.035041,0.620908,0.518901,-0.039478,0.622414,0.558925,0.005997,0.613826,0.517831,-0.017386,0.612916,0.564279,-0.026276,0.622846,0.578783,-0.029118,0.653855,0.558808,0.00535,0.642748,0.523203,-0.022976,0.640832,0.585317,-0.02472,0.650164,0.594741,-0.017862,0.684809,0.560848,-0.001321,0.675088,0.527371,-0.031955,0.667728,0.587712,-0.022931,0.674447,0.599774,-0.007454,0.716623,0.569345,-0.009628,0.708436,0.533059,-0.024125,0.698487,0.575312,-0.01506,0.700774,0.593355,-0.003497,0,1,0
403,'2026/05/06 10:38:51:807',2,0.672049,0.69622,0,0.620176,0.666205,-0.018074,0.583031,0.605528,-0.02633,0.585462,0.538125,-0.03606,0.621018,0.521618,-0.041143,0.623894,0.558745,0.005193,0.615584,0.515442,-0.01782,0.611671,0.563001,-0.026079,0.622095,0.577644,-0.028672,0.655592,0.55874,0.004578,0.6441,0.522189,-0.023691,0.638915,0.583694,-0.024451,0.649929,0.593882,-0.016966,0.686193,0.561534,-0.0022,0.675231,0.526291,-0.033091,0.66511,0.586026,-0.023956,0.673457,0.600202,-0.008311,0.717214,0.570914,-0.010704,0.707795,0.531171,-0.025695,0.695487,0.572703,-0.017072,0.698396,0.593465,-0.005808,0,1,0
404,'2026/05/06 10:38:51:839',2,0.673409,0.694955,0,0.620276,0.665818,-0.019031,0.583288,0.605971,-0.02778,0.586744,0.539073,-0.037547,0.623197,0.519629,-0.042339,0.623805,0.559579,0.002949,0.614984,0.516461,-0.019876,0.611779,0.563937,-0.027555,0.622317,0.578221,-0.029932,0.655194,0.559817,0.002838,0.643172,0.523491,-0.025764,0.63861,0.585787,-0.026344,0.650012,0.594581,-0.018878,0.685552,0.562489,-0.003341,0.674748,0.52736,-0.034733,0.664539,0.587667,-0.025021,0.673228,0.600044,-0.009065,0.716787,0.571713,-0.011281,0.707966,0.532344,-0.02677,0.695506,0.573919,-0.017918,0.698284,0.593553,-0.006505,0,1,0
405,'2026/05/06 10:38:51:869',2,0.673864,0.696267,0,0.620087,0.66535,-0.017277,0.583599,0.606353,-0.025316,0.586638,0.540065,-0.034838,0.622212,0.519606,-0.039533,0.623069,0.560748,0.005417,0.613033,0.517921,-0.016437,0.61032,0.564879,-0.023632,0.621799,0.579847,-0.02569,0.654454,0.560156,0.004656,0.641859,0.523482,-0.022496,0.637594,0.584947,-0.022781,0.649662,0.594781,-0.015471,0.685334,0.562628,-0.002062,0.673882,0.526383,-0.031937,0.663814,0.586302,-0.022133,0.672867,0.600149,-0.006547,0.717257,0.571939,-0.010458,0.707769,0.530885,-0.024831,0.695046,0.572176,-0.01568,0.698011,0.5927,-0.004297,0,1,0
406,'2026/05/06 10:38:51:906',2,0.673429,0.700332,0,0.620288,0.666346,-0.018135,0.584222,0.606685,-0.0271,0.586564,0.540985,-0.037343,0.621959,0.520439,-0.042143,0.627491,0.557338,0.004196,0.614801,0.516802,-0.020018,0.61161,0.565062,-0.028519,0.623472,0.577453,-0.031095,0.657511,0.558876,0.003339,0.641827,0.5236,-0.026453,0.636989,0.588081,-0.026711,0.650791,0.595376,-0.018478,0.687402,0.561864,-0.003729,0.672929,0.528089,-0.035251,0.66238,0.589616,-0.024585,0.673632,0.600616,-0.007672,0.718632,0.571025,-0.012635,0.707536,0.532793,-0.026995,0.695149,0.573498,-0.017103,0.700627,0.590741,-0.00479,0,1,0
407,'2026/05/06 10:38:51:934',2,0.674021,0.699332,0,0.619771,0.664857,-0.016863,0.583106,0.606679,-0.025121,0.586079,0.539645,-0.035431,0.622101,0.518561,-0.040963,0.624687,0.560153,0.011577,0.6143,0.5174,-0.012033,0.611205,0.563168,-0.022043,0.622041,0.578451,-0.025421,0.655314,0.560444,0.010438,0.64202,0.523093,-0.018589,0.638544,0.585008,-0.021374,0.650439,0.595634,-0.014629,0.68571,0.563035,0.00284,0.673652,0.527618,-0.028449,0.664581,0.587146,-0.020566,0.673886,0.600943,-0.005094,0.717472,0.572035,-0.006394,0.70667,0.531505,-0.020471,0.695002,0.571961,-0.011554,0.699067,0.591874,0.000236,0,1,0
408,'2026/05/06 10:38:51:970',2,0.672641,0.695719,0,0.619939,0.665516,-0.018191,0.583008,0.607309,-0.026272,0.585795,0.541338,-0.035711,0.619586,0.520265,-0.040543,0.62117,0.558437,0.006338,0.612076,0.515558,-0.018073,0.610017,0.56253,-0.028284,0.619351,0.576502,-0.031874,0.652368,0.559456,0.005662,0.641802,0.52179,-0.023015,0.638345,0.582875,-0.025219,0.647622,0.592401,-0.018583,0.68315,0.562139,-0.001272,0.673983,0.527106,-0.032458,0.665808,0.586699,-0.023637,0.673065,0.599485,-0.008036,0.715709,0.570591,-0.009977,0.707864,0.532447,-0.024894,0.697576,0.574224,-0.015658,0.700098,0.593053,-0.003788,0,1,0
409,'2026/05/06 10:38:51:997',2,0.673536,0.699108,0,0.620288,0.666734,-0.018431,0.583405,0.607175,-0.027068,0.585637,0.540721,-0.036943,0.620686,0.521385,-0.041505,0.625787,0.557952,0.00503,0.61509,0.516552,-0.018143,0.611579,0.564838,-0.025928,0.622508,0.578117,-0.028152,0.655956,0.558593,0.004426,0.641626,0.523767,-0.024721,0.637205,0.586942,-0.02534,0.650265,0.594278,-0.017444,0.685821,0.561239,-0.002385,0.672355,0.527844,-0.033652,0.66243,0.588502,-0.023914,0.673026,0.599256,-0.007681,0.716817,0.570346,-0.011007,0.705961,0.532603,-0.025446,0.693949,0.573573,-0.016135,0.698937,0.59114,-0.004273,0,1,0
410,'2026/05/06 10:38:52:030',2,0.674329,0.699022,0,0.620014,0.667017,-0.017399,0.582985,0.606671,-0.025556,0.585437,0.539953,-0.035278,0.620391,0.52041,-0.040002,0.624125,0.559073,0.00703,0.614874,0.516336,-0.016198,0.611596,0.563344,-0.025075,0.621859,0.577929,-0.027947,0.654655,0.55971,0.006219,0.641902,0.524311,-0.022282,0.638214,0.587052,-0.023621,0.650251,0.595676,-0.016409,0.684999,0.562119,-0.000791,0.673748,0.527912,-0.031581,0.664216,0.588457,-0.022403,0.673385,0.600898,-0.006657,0.716512,0.570537,-0.009502,0.707228,0.531728,-0.023727,0.694865,0.573372,-0.014423,0.698114,0.592407,-0.002618,0,1,0
411,'2026/05/06 10:38:52:060',2,0.67418,0.698616,0,0.620018,0.666095,-0.016886,0.582942,0.606622,-0.024875,0.585229,0.539187,-0.034959,0.621032,0.520745,-0.040244,0.624667,0.560101,0.010393,0.615626,0.517157,-0.013171,0.61187,0.56423,-0.02281,0.622161,0.578819,-0.026165,0.655472,0.560619,0.009064,0.642746,0.523548,-0.019893,0.638286,0.585268,-0.022098,0.650004,0.594742,-0.01525,0.685681,0.563462,0.001319,0.674233,0.527459,-0.029791,0.664587,0.586986,-0.021252,0.673711,0.600236,-0.005682,0.7169,0.572574,-0.008129,0.707334,0.53236,-0.022272,0.69512,0.572921,-0.013197,0.69872,0.593031,-0.001515,0,1,0
412,'2026/05/06 10:38:52:102',2,0.673217,0.692779,0,0.620477,0.66632,-0.018104,0.583021,0.607841,-0.025988,0.584935,0.540842,-0.035054,0.619609,0.522113,-0.039233,0.622918,0.558568,0.004659,0.615203,0.515674,-0.018601,0.61155,0.56295,-0.026942,0.620188,0.576785,-0.029452,0.653936,0.558873,0.00425,0.642571,0.523483,-0.024062,0.638649,0.585663,-0.02467,0.648646,0.594678,-0.016979,0.684351,0.56112,-0.002258,0.673539,0.528648,-0.033168,0.664745,0.588984,-0.023511,0.672433,0.600723,-0.007496,0.715748,0.569621,-0.010456,0.706746,0.533576,-0.025126,0.69594,0.575764,-0.015791,0.699044,0.594036,-0.003973,0,1,0
413,'2026/05/06 10:38:52:141',2,0.675297,0.697129,0,0.621227,0.665016,-0.016784,0.583728,0.60584,-0.02481,0.584466,0.538546,-0.034712,0.619122,0.518903,-0.039812,0.62567,0.560406,0.008616,0.616137,0.516564,-0.015442,0.613442,0.562568,-0.02534,0.624038,0.577749,-0.028681,0.655852,0.561166,0.00738,0.643659,0.522751,-0.021833,0.639973,0.583764,-0.024097,0.651244,0.594217,-0.017219,0.686018,0.562906,-0.0001,0.674766,0.527372,-0.031245,0.665981,0.586406,-0.022665,0.674851,0.600051,-0.00706,0.717384,0.57062,-0.009246,0.707188,0.532287,-0.023482,0.695927,0.573217,-0.014307,0.699675,0.592691,-0.002493,0,1,0
414,'2026/05/06 10:38:52:167',2,0.675297,0.697129,0,0.621227,0.665016,-0.016784,0.583728,0.60584,-0.02481,0.584466,0.538546,-0.034712,0.619122,0.518903,-0.039812,0.62567,0.560406,0.008616,0.616137,0.516564,-0.015442,0.613442,0.562568,-0.02534,0.624038,0.577749,-0.028681,0.655852,0.561166,0.00738,0.643659,0.522751,-0.021833,0.639973,0.583764,-0.024097,0.651244,0.594217,-0.017219,0.686018,0.562906,-0.0001,0.674766,0.527372,-0.031245,0.665981,0.586406,-0.022665,0.674851,0.600051,-0.00706,0.717384,0.57062,-0.009246,0.707188,0.532287,-0.023482,0.695927,0.573217,-0.014307,0.699675,0.592691,-0.002493,0,1,0
415,'2026/05/06 10:38:52:205',2,0.675288,0.698302,0,0.62052,0.667457,-0.017442,0.582487,0.607676,-0.025822,0.58583,0.539527,-0.035689,0.622969,0.521003,-0.040542,0.624877,0.559864,0.00561,0.614998,0.516825,-0.017277,0.612381,0.564311,-0.025654,0.623437,0.579362,-0.028475,0.656052,0.560281,0.004705,0.642588,0.524082,-0.023629,0.638868,0.586416,-0.024744,0.650275,0.596074,-0.017735,0.686419,0.562611,-0.002215,0.674814,0.527404,-0.03289,0.665002,0.587611,-0.023172,0.673065,0.600817,-0.007382,0.717743,0.571549,-0.010855,0.70872,0.532257,-0.025271,0.695914,0.573789,-0.015905,0.698132,0.59359,-0.004254,0,1,0
416,'2026/05/06 10:38:52:241',2,0.67605,0.695848,0,0.622667,0.667448,-0.018774,0.584027,0.607385,-0.02761,0.586661,0.539321,-0.037261,0.622547,0.519124,-0.041764,0.622956,0.557891,0.002218,0.61476,0.515262,-0.021306,0.613179,0.563675,-0.02926,0.622967,0.576387,-0.031691,0.654976,0.558735,0.001962,0.643503,0.522723,-0.026541,0.640543,0.586167,-0.02671,0.649977,0.594178,-0.018989,0.685822,0.561677,-0.004286,0.675497,0.527123,-0.035095,0.666932,0.588663,-0.024566,0.673866,0.599992,-0.008278,0.717207,0.571002,-0.012287,0.708033,0.534164,-0.027035,0.697851,0.576596,-0.017668,0.700875,0.593773,-0.00601,0,1,0
417,'2026/05/06 10:38:52:276',2,0.673072,0.695815,0,0.619892,0.663376,-0.016954,0.583458,0.605285,-0.024934,0.585632,0.539342,-0.034664,0.621107,0.520219,-0.039746,0.624951,0.559354,0.008635,0.615963,0.515273,-0.016349,0.61322,0.561637,-0.02767,0.622669,0.577178,-0.031772,0.655367,0.560748,0.00753,0.643959,0.521949,-0.021412,0.640277,0.581709,-0.024358,0.650815,0.592056,-0.018065,0.685567,0.563459,0.000116,0.675388,0.526788,-0.030451,0.666847,0.584594,-0.022171,0.675052,0.598371,-0.00691,0.717392,0.572212,-0.009059,0.708207,0.533117,-0.023314,0.697777,0.573461,-0.014341,0.701473,0.593258,-0.002629,0,1,0
418,'2026/05/06 10:38:52:306',2,0.674838,0.696872,0,0.620203,0.664914,-0.016871,0.583567,0.607055,-0.025033,0.585833,0.540311,-0.03505,0.620504,0.520652,-0.040127,0.625828,0.557405,0.010587,0.616982,0.515617,-0.013042,0.612907,0.561576,-0.02297,0.622654,0.576452,-0.026349,0.656313,0.558511,0.009401,0.643336,0.521931,-0.019502,0.638656,0.583198,-0.022029,0.650404,0.593181,-0.015209,0.686424,0.56191,0.001826,0.674131,0.527245,-0.028775,0.664553,0.586085,-0.020525,0.67405,0.598461,-0.005189,0.717941,0.571583,-0.007426,0.70668,0.533895,-0.021019,0.695243,0.57415,-0.012008,0.700083,0.592722,-0.000344,0,1,0
419,'2026/05/06 10:38:52:340',2,0.67322,0.697589,0,0.619972,0.665294,-0.01658,0.583516,0.607888,-0.024565,0.585741,0.541747,-0.034454,0.620375,0.520646,-0.039792,0.623153,0.559067,0.009903,0.613046,0.51583,-0.015216,0.610842,0.561719,-0.026699,0.620785,0.578603,-0.030687,0.653792,0.55941,0.008647,0.641618,0.521779,-0.020245,0.638741,0.58212,-0.023213,0.649367,0.593882,-0.016712,0.684275,0.561869,0.001003,0.673089,0.527911,-0.029667,0.665238,0.586073,-0.021649,0.673367,0.599957,-0.006368,0.716702,0.570692,-0.008323,0.706947,0.532129,-0.022133,0.696439,0.57251,-0.012902,0.699758,0.591454,-0.000954,0,1,0
420,'2026/05/06 10:38:52:386',2,0.6742,0.696667,0,0.620052,0.663675,-0.017574,0.583123,0.605688,-0.026037,0.584589,0.539567,-0.0361,0.619714,0.521308,-0.041314,0.624483,0.558997,0.008792,0.613851,0.515095,-0.016767,0.611256,0.562038,-0.028463,0.621928,0.577916,-0.032649,0.655157,0.559913,0.007982,0.642906,0.521273,-0.021405,0.639234,0.581963,-0.02451,0.650638,0.59245,-0.017952,0.68562,0.562171,0.000723,0.674308,0.527728,-0.029941,0.665732,0.58557,-0.021942,0.675053,0.598194,-0.006616,0.717676,0.570287,-0.008337,0.70709,0.53227,-0.021724,0.696132,0.572355,-0.012448,0.700201,0.590911,-0.00049,0,1,0
421,'2026/05/06 10:38:52:421',2,0.673191,0.697377,0,0.620034,0.665368,-0.018482,0.583243,0.606816,-0.027386,0.586176,0.540333,-0.037647,0.621599,0.520041,-0.043048,0.623873,0.55792,0.005579,0.614111,0.515775,-0.018457,0.61064,0.562816,-0.027731,0.621558,0.575761,-0.030923,0.654999,0.5589,0.004907,0.642833,0.52179,-0.024776,0.638098,0.584179,-0.026303,0.64977,0.593527,-0.018912,0.685601,0.56167,-0.002048,0.674056,0.526734,-0.033928,0.664393,0.586931,-0.024956,0.673853,0.599321,-0.009041,0.717415,0.570684,-0.010741,0.706712,0.531776,-0.025641,0.69548,0.573441,-0.016572,0.699876,0.592634,-0.004815,0,1,0
422,'2026/05/06 10:38:52:458',2,0.673846,0.696606,0,0.620603,0.666842,-0.017597,0.583226,0.606163,-0.025793,0.585647,0.538732,-0.035548,0.620775,0.519136,-0.040599,0.625823,0.55942,0.006272,0.616044,0.516897,-0.016927,0.612321,0.563556,-0.025248,0.622964,0.579296,-0.027678,0.656823,0.559849,0.00538,0.644099,0.522534,-0.023232,0.639014,0.584043,-0.024097,0.650521,0.595041,-0.016441,0.687194,0.562972,-0.001732,0.674894,0.527747,-0.032796,0.665301,0.587212,-0.023602,0.674523,0.601071,-0.007808,0.718544,0.572657,-0.010524,0.707181,0.533274,-0.025477,0.695992,0.574422,-0.016751,0.700456,0.594301,-0.005353,0,1,0
423,'2026/05/06 10:38:52:497',2,0.673483,0.699129,0,0.619875,0.665998,-0.016919,0.583496,0.607409,-0.025259,0.58623,0.540631,-0.035495,0.620992,0.521614,-0.04081,0.627771,0.558886,0.008124,0.619021,0.5154,-0.015552,0.614724,0.562926,-0.024917,0.62496,0.580035,-0.027914,0.657953,0.560077,0.007003,0.645338,0.523697,-0.02141,0.639511,0.585253,-0.023303,0.650803,0.595837,-0.016624,0.687769,0.563413,-0.000359,0.676403,0.527445,-0.030944,0.665017,0.587221,-0.021986,0.673406,0.601783,-0.006501,0.718713,0.573295,-0.009413,0.710048,0.532501,-0.023535,0.696466,0.573261,-0.014287,0.699048,0.594281,-0.002529,0,1,0
424,'2026/05/06 10:38:52:535',2,0.673772,0.694825,0,0.622712,0.665825,-0.019162,0.584536,0.607074,-0.027772,0.585277,0.540213,-0.037252,0.619566,0.520814,-0.041887,0.622137,0.558755,0.004176,0.614043,0.514684,-0.019894,0.611862,0.562469,-0.029164,0.620326,0.576904,-0.032088,0.654048,0.559247,0.004105,0.644423,0.521418,-0.024284,0.641329,0.582648,-0.025829,0.649657,0.592779,-0.0187,0.6852,0.56177,-0.002145,0.676952,0.528383,-0.033055,0.669381,0.587319,-0.024294,0.675516,0.599808,-0.008744,0.717383,0.570239,-0.010146,0.709843,0.533375,-0.024789,0.700472,0.574947,-0.015725,0.702577,0.593234,-0.004026,0,1,0
425,'2026/05/06 10:38:52:562',2,0.674476,0.694496,0,0.620885,0.664528,-0.017754,0.584013,0.607019,-0.025812,0.586203,0.540435,-0.035418,0.620896,0.519304,-0.040302,0.622617,0.558701,0.008836,0.614185,0.514622,-0.015672,0.611746,0.560972,-0.026079,0.620704,0.576995,-0.029506,0.653839,0.559639,0.008254,0.643218,0.521903,-0.020377,0.640219,0.582731,-0.023048,0.649654,0.592686,-0.01661,0.684859,0.562613,0.001274,0.675089,0.527802,-0.029836,0.667349,0.586686,-0.021615,0.674806,0.599433,-0.006326,0.717261,0.571591,-0.007383,0.708248,0.533012,-0.02206,0.698371,0.57494,-0.012983,0.701367,0.5945,-0.001149,0,1,0
426,'2026/05/06 10:38:52:590',2,0.674476,0.694496,0,0.620885,0.664528,-0.017754,0.584013,0.607019,-0.025812,0.586203,0.540435,-0.035418,0.620896,0.519304,-0.040302,0.622617,0.558701,0.008836,0.614185,0.514622,-0.015672,0.611746,0.560972,-0.026079,0.620704,0.576995,-0.029506,0.653839,0.559639,0.008254,0.643218,0.521903,-0.020377,0.640219,0.582731,-0.023048,0.649654,0.592686,-0.01661,0.684859,0.562613,0.001274,0.675089,0.527802,-0.029836,0.667349,0.586686,-0.021615,0.674806,0.599433,-0.006326,0.717261,0.571591,-0.007383,0.708248,0.533012,-0.02206,0.698371,0.57494,-0.012983,0.701367,0.5945,-0.001149,0,1,0
427,'2026/05/06 10:38:52:624',2,0.673575,0.69391,0,0.621522,0.663053,-0.017012,0.585,0.607005,-0.025009,0.586212,0.541593,-0.034716,0.619818,0.521219,-0.039825,0.625733,0.560386,0.00855,0.616526,0.515456,-0.016158,0.613487,0.562367,-0.026932,0.622498,0.577997,-0.030673,0.656515,0.561109,0.0075,0.644813,0.522346,-0.021064,0.641113,0.582407,-0.023577,0.650985,0.593441,-0.01701,0.686859,0.56346,0.000112,0.676328,0.528027,-0.030117,0.668562,0.585976,-0.02181,0.67649,0.599881,-0.006622,0.718828,0.571568,-0.009035,0.709399,0.533596,-0.023155,0.699421,0.573665,-0.014427,0.70297,0.592497,-0.00299,0,1,0
428,'2026/05/06 10:38:52:655',2,0.676569,0.697085,0,0.622211,0.666751,-0.016063,0.585035,0.60784,-0.023085,0.587267,0.540585,-0.032109,0.621569,0.5207,-0.036425,0.623573,0.559872,0.010854,0.614655,0.514636,-0.013831,0.6121,0.561545,-0.024664,0.621328,0.578162,-0.028263,0.654139,0.560974,0.009611,0.643402,0.521301,-0.019192,0.639732,0.582962,-0.021768,0.649433,0.594236,-0.015027,0.684845,0.563061,0.001999,0.675278,0.526442,-0.028845,0.666822,0.586338,-0.020314,0.674616,0.601248,-0.004654,0.717531,0.570761,-0.007288,0.708987,0.532156,-0.021665,0.698555,0.57378,-0.012554,0.701843,0.593924,-0.000649,0,1,0
429,'2026/05/06 10:38:52:694',2,0.67404,0.696234,0,0.621045,0.666371,-0.01761,0.58467,0.607909,-0.025891,0.587635,0.54129,-0.035633,0.622484,0.521584,-0.04052,0.625605,0.557162,0.006141,0.61666,0.51511,-0.016991,0.613398,0.56184,-0.02537,0.622952,0.576039,-0.027858,0.656501,0.557681,0.005231,0.644031,0.521978,-0.022878,0.640084,0.58449,-0.023308,0.651386,0.593842,-0.015455,0.686776,0.560962,-0.00187,0.675499,0.527578,-0.03273,0.666148,0.588185,-0.023018,0.674592,0.600561,-0.006916,0.718014,0.570814,-0.010655,0.708946,0.533112,-0.025156,0.697424,0.574725,-0.015679,0.70059,0.59354,-0.003736,0,1,0
430,'2026/05/06 10:38:52:726',2,0.67439,0.697446,0,0.622022,0.667493,-0.018041,0.584809,0.608471,-0.02698,0.587402,0.541714,-0.037169,0.62318,0.520333,-0.042393,0.625388,0.558872,0.0029,0.616951,0.516462,-0.020442,0.614776,0.564838,-0.02801,0.624811,0.579325,-0.030109,0.65697,0.559571,0.001984,0.644614,0.52321,-0.026662,0.641288,0.586283,-0.026693,0.651712,0.595933,-0.018855,0.687674,0.562928,-0.004906,0.676575,0.527467,-0.03603,0.66766,0.588766,-0.025403,0.675104,0.601847,-0.009019,0.718778,0.573362,-0.013496,0.709589,0.533861,-0.028557,0.698049,0.576511,-0.018932,0.700348,0.596146,-0.007076,0,1,0
431,'2026/05/06 10:38:52:755',2,0.6767,0.69852,0,0.624615,0.667771,-0.01741,0.586526,0.609552,-0.025591,0.58751,0.542075,-0.035256,0.622149,0.519913,-0.040096,0.624183,0.559426,0.008118,0.61489,0.515904,-0.016982,0.613245,0.56354,-0.027875,0.622621,0.579658,-0.031557,0.65546,0.559391,0.007063,0.64438,0.521558,-0.021548,0.641521,0.582056,-0.023805,0.650863,0.592181,-0.017101,0.686157,0.561844,-0.000367,0.676893,0.527718,-0.031281,0.669158,0.586602,-0.022187,0.675721,0.599617,-0.006316,0.718137,0.570669,-0.00955,0.710373,0.533935,-0.023787,0.700154,0.575213,-0.013993,0.702156,0.593532,-0.001702,0,1,0
432,'2026/05/06 10:38:52:784',2,0.676788,0.698032,0,0.623584,0.668202,-0.01749,0.585971,0.610417,-0.025947,0.587551,0.543442,-0.035915,0.62238,0.521204,-0.041271,0.623067,0.562202,0.006507,0.613445,0.518396,-0.017832,0.611946,0.564724,-0.02726,0.621486,0.578919,-0.030293,0.654742,0.561954,0.005382,0.642724,0.523737,-0.023499,0.640454,0.585253,-0.025128,0.650227,0.594626,-0.018072,0.685877,0.564298,-0.001955,0.675326,0.529194,-0.03357,0.668132,0.58947,-0.024417,0.675537,0.602378,-0.008597,0.718583,0.57299,-0.010936,0.709625,0.534379,-0.026398,0.69967,0.576868,-0.017268,0.702392,0.596045,-0.005482,0,1,0
433,'2026/05/06 10:38:52:812',2,0.677009,0.697655,0,0.624431,0.6684,-0.01903,0.586793,0.610048,-0.028109,0.588895,0.543206,-0.038043,0.624121,0.521494,-0.042786,0.626165,0.558945,0.002526,0.616319,0.516495,-0.020811,0.613799,0.564364,-0.028602,0.624568,0.576757,-0.030977,0.65779,0.55936,0.002343,0.645147,0.523392,-0.025982,0.641626,0.586973,-0.025562,0.653265,0.595032,-0.017429,0.688459,0.562267,-0.003972,0.677208,0.528316,-0.034891,0.66829,0.590088,-0.024184,0.677365,0.601939,-0.007766,0.71988,0.571821,-0.012097,0.710543,0.534814,-0.027131,0.698924,0.577734,-0.017676,0.702278,0.59612,-0.005891,0,1,0
434,'2026/05/06 10:38:52:843',2,0.677462,0.697959,0,0.624354,0.667452,-0.018091,0.587101,0.608212,-0.026524,0.589206,0.542274,-0.036132,0.623654,0.521302,-0.040737,0.625496,0.559711,0.004834,0.617088,0.514788,-0.02036,0.61472,0.564004,-0.030504,0.623318,0.577366,-0.034091,0.656957,0.56158,0.004101,0.646134,0.522889,-0.025236,0.642799,0.585633,-0.026953,0.651564,0.592978,-0.02004,0.688079,0.564618,-0.002843,0.678338,0.529126,-0.033934,0.670414,0.589815,-0.024035,0.677674,0.600021,-0.00801,0.720721,0.573399,-0.011575,0.712105,0.536652,-0.026269,0.702271,0.579212,-0.016662,0.705504,0.596236,-0.004714,0,1,0
435,'2026/05/06 10:38:52:874',2,0.679207,0.696598,0,0.626637,0.668399,-0.018005,0.587934,0.609918,-0.026095,0.589689,0.542123,-0.035325,0.624097,0.520742,-0.039683,0.625855,0.559295,0.006099,0.617478,0.516102,-0.019012,0.615455,0.564667,-0.029497,0.624181,0.579163,-0.033005,0.657699,0.559784,0.005348,0.647844,0.52333,-0.022928,0.644325,0.584239,-0.024701,0.652711,0.592629,-0.017766,0.68852,0.562316,-0.001737,0.680832,0.529173,-0.03226,0.672561,0.588334,-0.022907,0.67855,0.599914,-0.007055,0.720857,0.570615,-0.010621,0.713785,0.534728,-0.024614,0.703741,0.576347,-0.014902,0.705555,0.593306,-0.002789,0,1,0
436,'2026/05/06 10:39:46:862',3,0.602194,0.881447,0,0.57406,0.842814,-0.012662,0.573426,0.775456,-0.018837,0.600472,0.727741,-0.025022,0.618915,0.688378,-0.030748,0.598,0.73057,-0.010499,0.593111,0.666979,-0.027503,0.58845,0.623631,-0.033697,0.588846,0.591078,-0.037897,0.626694,0.7496,-0.01339,0.637441,0.700264,-0.037427,0.61244,0.747443,-0.034227,0.611098,0.778084,-0.023957,0.646636,0.776791,-0.019088,0.647934,0.745688,-0.045256,0.620499,0.785781,-0.032748,0.622635,0.806594,-0.01714,0.662538,0.80958,-0.025687,0.653697,0.786465,-0.043909,0.633479,0.813241,-0.036667,0.636757,0.829583,-0.027407,0,0,1
437,'2026/05/06 10:39:46:910',3,0.60245,0.879527,0,0.575044,0.841462,-0.013939,0.573072,0.774171,-0.02142,0.600141,0.72602,-0.029035,0.618274,0.687053,-0.036211,0.597574,0.729493,-0.011328,0.592439,0.666096,-0.029348,0.588736,0.622853,-0.035671,0.590344,0.589996,-0.039781,0.626506,0.749057,-0.014117,0.636165,0.700681,-0.039258,0.611293,0.748711,-0.03624,0.610775,0.778839,-0.026057,0.646848,0.776368,-0.019948,0.647953,0.74551,-0.047721,0.619702,0.786043,-0.035534,0.621035,0.807243,-0.019763,0.662679,0.808483,-0.02675,0.653974,0.785661,-0.045815,0.633277,0.81253,-0.038939,0.635771,0.829358,-0.029744,0,0,1
438,'2026/05/06 10:39:46:942',3,0.60245,0.879527,0,0.575044,0.841462,-0.013939,0.573072,0.774171,-0.02142,0.600141,0.72602,-0.029035,0.618274,0.687053,-0.036211,0.597574,0.729493,-0.011328,0.592439,0.666096,-0.029348,0.588736,0.622853,-0.035671,0.590344,0.589996,-0.039781,0.626506,0.749057,-0.014117,0.636165,0.700681,-0.039258,0.611293,0.748711,-0.03624,0.610775,0.778839,-0.026057,0.646848,0.776368,-0.019948,0.647953,0.74551,-0.047721,0.619702,0.786043,-0.035534,0.621035,0.807243,-0.019763,0.662679,0.808483,-0.02675,0.653974,0.785661,-0.045815,0.633277,0.81253,-0.038939,0.635771,0.829358,-0.029744,0,0,1
439,'2026/05/06 10:39:46:979',3,0.602316,0.87835,0,0.575002,0.843078,-0.013447,0.573152,0.774378,-0.020628,0.601364,0.72601,-0.027846,0.618668,0.686686,-0.034694,0.597626,0.729622,-0.011977,0.592437,0.666777,-0.029659,0.588939,0.623944,-0.035675,0.590269,0.591979,-0.039493,0.626235,0.749149,-0.014726,0.636318,0.70178,-0.039008,0.611405,0.749292,-0.035092,0.610673,0.778398,-0.024375,0.646209,0.776463,-0.020463,0.647757,0.746094,-0.047721,0.619834,0.785657,-0.035237,0.620903,0.805823,-0.01939,0.662169,0.808779,-0.02704,0.654001,0.785919,-0.045574,0.633218,0.812412,-0.038233,0.635321,0.828559,-0.02886,0,0,1
440,'2026/05/06 10:39:47:025',3,0.602697,0.880901,0,0.57392,0.842502,-0.014124,0.572116,0.775656,-0.02152,0.598898,0.726923,-0.028783,0.616296,0.686307,-0.035479,0.596117,0.730271,-0.012788,0.591217,0.665963,-0.030311,0.588434,0.6229,-0.036253,0.589491,0.590333,-0.040168,0.625566,0.748933,-0.015403,0.635565,0.70012,-0.040633,0.612232,0.748923,-0.037714,0.610452,0.779051,-0.02761,0.646362,0.775291,-0.020868,0.646076,0.746283,-0.048589,0.619421,0.788234,-0.036442,0.620092,0.808932,-0.020825,0.662871,0.806865,-0.027263,0.652589,0.784539,-0.046509,0.632687,0.812942,-0.039632,0.635032,0.829278,-0.030503,0,0,1
441,'2026/05/06 10:39:47:061',3,0.602549,0.880488,0,0.573757,0.842981,-0.01379,0.572353,0.776576,-0.020308,0.59917,0.729331,-0.026552,0.61701,0.690147,-0.032254,0.596221,0.728835,-0.011854,0.591171,0.66498,-0.029292,0.586936,0.622546,-0.035932,0.587797,0.590327,-0.040311,0.62521,0.748494,-0.014305,0.63541,0.70222,-0.038605,0.611366,0.749193,-0.035921,0.609483,0.77862,-0.026301,0.645303,0.775948,-0.019651,0.647343,0.746765,-0.04679,0.619751,0.786909,-0.034951,0.620063,0.806984,-0.019653,0.661339,0.808437,-0.025879,0.65408,0.786091,-0.044716,0.632904,0.813127,-0.037565,0.633727,0.829042,-0.028272,0,0,1
442,'2026/05/06 10:39:47:095',3,0.602537,0.88336,0,0.574452,0.840937,-0.015052,0.572186,0.776382,-0.023742,0.598882,0.729405,-0.032485,0.618329,0.690717,-0.040482,0.596036,0.730666,-0.011726,0.590473,0.665897,-0.030124,0.586602,0.623502,-0.03677,0.588581,0.590711,-0.040954,0.624967,0.74926,-0.014693,0.634728,0.701414,-0.040988,0.611489,0.748563,-0.039612,0.61069,0.777967,-0.030446,0.645896,0.776003,-0.020737,0.645886,0.746643,-0.048625,0.618651,0.78712,-0.036931,0.619997,0.807219,-0.021388,0.662119,0.808218,-0.027952,0.653593,0.78497,-0.045482,0.632859,0.811453,-0.037536,0.634557,0.827207,-0.027647,0,0,1
443,'2026/05/06 10:39:47:127',3,0.601973,0.879649,0,0.573807,0.842825,-0.014375,0.571755,0.776232,-0.022234,0.599495,0.728291,-0.029918,0.617706,0.689185,-0.03694,0.596162,0.729184,-0.013243,0.591658,0.665396,-0.031696,0.588225,0.622236,-0.038138,0.589831,0.589797,-0.042222,0.625613,0.748693,-0.01564,0.635109,0.701321,-0.040897,0.610805,0.749795,-0.037539,0.610442,0.779246,-0.027214,0.646165,0.77572,-0.021025,0.646305,0.747247,-0.048825,0.618548,0.788021,-0.03621,0.619825,0.808281,-0.020254,0.662466,0.807682,-0.027381,0.653067,0.785676,-0.046056,0.631988,0.813126,-0.038663,0.633876,0.829099,-0.029233,0,0,1
444,'2026/05/06 10:39:47:158',3,0.600617,0.879479,0,0.573095,0.843386,-0.012484,0.572158,0.775812,-0.018723,0.599909,0.72741,-0.024951,0.616981,0.68791,-0.030837,0.596082,0.730264,-0.010951,0.591964,0.668186,-0.028538,0.588214,0.625424,-0.034683,0.58886,0.593692,-0.038449,0.624749,0.749353,-0.01371,0.634753,0.700743,-0.037156,0.610106,0.74836,-0.032892,0.609057,0.777806,-0.021988,0.644901,0.776545,-0.01942,0.646351,0.745767,-0.045943,0.619233,0.785811,-0.033291,0.620102,0.806395,-0.017411,0.661092,0.808512,-0.025921,0.653505,0.784677,-0.044335,0.632645,0.811435,-0.036993,0.633843,0.827816,-0.027593,0,0,1
445,'2026/05/06 10:39:47:188',3,0.601268,0.879995,0,0.573526,0.843315,-0.01429,0.571526,0.775923,-0.022392,0.599478,0.727997,-0.030554,0.617197,0.689027,-0.038177,0.596951,0.729848,-0.012219,0.591958,0.666656,-0.030849,0.588217,0.623958,-0.037035,0.59005,0.59162,-0.0407,0.6257,0.749526,-0.014818,0.635394,0.702603,-0.039375,0.610254,0.750414,-0.034971,0.610815,0.777845,-0.023831,0.645708,0.776793,-0.020674,0.646497,0.74751,-0.048279,0.618202,0.787384,-0.035508,0.620227,0.806323,-0.019361,0.661425,0.808352,-0.027525,0.652898,0.786943,-0.045832,0.631603,0.813433,-0.038351,0.633762,0.828676,-0.028854,0,0,1
446,'2026/05/06 10:39:47:220',3,0.599571,0.880942,0,0.572316,0.84367,-0.012155,0.571284,0.777035,-0.018559,0.598398,0.730487,-0.025041,0.615792,0.691291,-0.031126,0.596005,0.730812,-0.011661,0.591983,0.667395,-0.029293,0.588201,0.624502,-0.03593,0.588757,0.592665,-0.040348,0.624895,0.750338,-0.01503,0.634551,0.701706,-0.039634,0.60999,0.749138,-0.036674,0.608037,0.779795,-0.026766,0.645248,0.777911,-0.021149,0.645585,0.746686,-0.048084,0.618522,0.787612,-0.035586,0.618906,0.809306,-0.019968,0.66144,0.810714,-0.028063,0.653056,0.786004,-0.047154,0.632381,0.813367,-0.04002,0.633854,0.83041,-0.030762,0,0,1
447,'2026/05/06 10:39:47:254',3,0.600302,0.881464,0,0.573424,0.845393,-0.012766,0.571346,0.777776,-0.02022,0.598618,0.729431,-0.027743,0.615598,0.689863,-0.034567,0.596543,0.730925,-0.0124,0.591467,0.668524,-0.030779,0.587403,0.625689,-0.036961,0.587993,0.593421,-0.040835,0.625495,0.749976,-0.015458,0.634897,0.702547,-0.039438,0.61003,0.751888,-0.034316,0.610364,0.77974,-0.022929,0.645772,0.777044,-0.021576,0.645421,0.748197,-0.047999,0.618351,0.78877,-0.034057,0.621091,0.807242,-0.0177,0.66197,0.809029,-0.028628,0.65161,0.78797,-0.046368,0.631521,0.814736,-0.038493,0.635234,0.82907,-0.029072,0,0,1
448,'2026/05/06 10:39:47:282',3,0.600309,0.880886,0,0.573832,0.843988,-0.013457,0.570699,0.778232,-0.021615,0.59797,0.729836,-0.029783,0.615763,0.691541,-0.037224,0.595842,0.729824,-0.012371,0.59029,0.667757,-0.031539,0.586059,0.625174,-0.038355,0.586237,0.59315,-0.042266,0.624505,0.748948,-0.015027,0.6325,0.702342,-0.039029,0.608837,0.750939,-0.033924,0.609587,0.778065,-0.022421,0.644523,0.77632,-0.020909,0.644364,0.747536,-0.047103,0.617934,0.787582,-0.033163,0.620568,0.805944,-0.016602,0.660253,0.808871,-0.027852,0.65078,0.788723,-0.045124,0.631145,0.814907,-0.037154,0.634623,0.828928,-0.02746,0,0,1
449,'2026/05/06 10:39:47:314',3,0.601276,0.882033,0,0.57275,0.845129,-0.014922,0.570722,0.778144,-0.022375,0.597653,0.729184,-0.029503,0.615653,0.6894,-0.035994,0.594863,0.73026,-0.012639,0.589755,0.666402,-0.030509,0.586007,0.623835,-0.036881,0.587248,0.590778,-0.041081,0.624135,0.7492,-0.014859,0.633879,0.70119,-0.03999,0.610963,0.750234,-0.037339,0.61002,0.779784,-0.027479,0.644862,0.776365,-0.0201,0.645673,0.747724,-0.04766,0.618887,0.789797,-0.035658,0.619913,0.80967,-0.020155,0.661219,0.80854,-0.026408,0.652645,0.787642,-0.045257,0.632189,0.815792,-0.038344,0.63418,0.831196,-0.029207,0,0,1
450,'2026/05/06 10:39:47:345',3,0.601276,0.882033,0,0.57275,0.845129,-0.014922,0.570722,0.778144,-0.022375,0.597653,0.729184,-0.029503,0.615653,0.6894,-0.035994,0.594863,0.73026,-0.012639,0.589755,0.666402,-0.030509,0.586007,0.623835,-0.036881,0.587248,0.590778,-0.041081,0.624135,0.7492,-0.014859,0.633879,0.70119,-0.03999,0.610963,0.750234,-0.037339,0.61002,0.779784,-0.027479,0.644862,0.776365,-0.0201,0.645673,0.747724,-0.04766,0.618887,0.789797,-0.035658,0.619913,0.80967,-0.020155,0.661219,0.80854,-0.026408,0.652645,0.787642,-0.045257,0.632189,0.815792,-0.038344,0.63418,0.831196,-0.029207,0,0,1
451,'2026/05/06 10:39:47:377',3,0.600466,0.88241,0,0.573283,0.84678,-0.013295,0.570718,0.778683,-0.020779,0.597903,0.72967,-0.028302,0.615567,0.690892,-0.035185,0.595144,0.731336,-0.012009,0.589914,0.668397,-0.030452,0.585017,0.626037,-0.036985,0.585395,0.593667,-0.041161,0.624268,0.750067,-0.01504,0.632394,0.702116,-0.039605,0.608543,0.751336,-0.035838,0.609011,0.779941,-0.025386,0.644827,0.777007,-0.021124,0.644194,0.746995,-0.04761,0.617338,0.788349,-0.034326,0.619562,0.807916,-0.018297,0.660889,0.808917,-0.028246,0.651382,0.786754,-0.046095,0.630902,0.813734,-0.038523,0.633622,0.828805,-0.029118,0,0,1
452,'2026/05/06 10:39:47:408',3,0.60047,0.88332,0,0.573285,0.845194,-0.013622,0.57084,0.779352,-0.021627,0.597731,0.731651,-0.029775,0.616027,0.692852,-0.037287,0.59491,0.732995,-0.011625,0.590045,0.669041,-0.029673,0.585688,0.626452,-0.035973,0.586177,0.593974,-0.039969,0.62361,0.751507,-0.014721,0.632469,0.703221,-0.039103,0.609431,0.751073,-0.035811,0.610019,0.779668,-0.025749,0.644336,0.778134,-0.020866,0.643837,0.748387,-0.046783,0.617373,0.788553,-0.033812,0.620031,0.807459,-0.018156,0.660656,0.809825,-0.02816,0.651046,0.787636,-0.045129,0.63106,0.813836,-0.037323,0.634318,0.828691,-0.027932,0,0,1
453,'2026/05/06 10:39:47:438',3,0.601465,0.883052,0,0.573141,0.846247,-0.01292,0.569824,0.779502,-0.020258,0.597842,0.731523,-0.027755,0.615605,0.693512,-0.034643,0.595411,0.732281,-0.011532,0.58994,0.668435,-0.03033,0.585617,0.62641,-0.036886,0.586538,0.59393,-0.040781,0.62421,0.751233,-0.014406,0.63327,0.703484,-0.039156,0.608679,0.752744,-0.034831,0.609102,0.780648,-0.023818,0.644343,0.777856,-0.020409,0.644942,0.748139,-0.047681,0.617145,0.788938,-0.034393,0.619188,0.808638,-0.018094,0.660448,0.809332,-0.027348,0.650917,0.78837,-0.045507,0.630551,0.815131,-0.038069,0.63356,0.830337,-0.028725,0,0,1
454,'2026/05/06 10:39:47:470',3,0.601371,0.883219,0,0.573176,0.847476,-0.012884,0.569998,0.779229,-0.020103,0.598255,0.730063,-0.027556,0.615793,0.69153,-0.034536,0.594597,0.732371,-0.011107,0.58941,0.668783,-0.028804,0.585352,0.62625,-0.03449,0.586409,0.594173,-0.037998,0.62352,0.751446,-0.014105,0.632156,0.703159,-0.038336,0.607905,0.752024,-0.034028,0.608163,0.780317,-0.023056,0.643869,0.778135,-0.020161,0.644008,0.747856,-0.046744,0.616945,0.78886,-0.03381,0.618815,0.808706,-0.017942,0.660154,0.809375,-0.027159,0.650824,0.787403,-0.045088,0.630492,0.814529,-0.037985,0.633137,0.829918,-0.028968,0,0,1
455,'2026/05/06 10:39:47:515',3,0.599829,0.885137,0,0.573246,0.848107,-0.012564,0.569908,0.781393,-0.020564,0.597041,0.73197,-0.028866,0.614163,0.692429,-0.036461,0.594484,0.731929,-0.011621,0.589823,0.6694,-0.030057,0.585487,0.62748,-0.036276,0.585903,0.595583,-0.040008,0.623428,0.751246,-0.014898,0.63119,0.703581,-0.037992,0.606721,0.753591,-0.03226,0.608186,0.780021,-0.020738,0.6438,0.779003,-0.021342,0.644065,0.748129,-0.046446,0.617104,0.788637,-0.031669,0.619502,0.807426,-0.015059,0.659658,0.811531,-0.028888,0.651403,0.789378,-0.045338,0.630503,0.815146,-0.03676,0.632318,0.829679,-0.026941,0,0,1
456,'2026/05/06 10:39:47:557',3,0.601152,0.885907,0,0.572993,0.848482,-0.013463,0.569385,0.780717,-0.021717,0.596171,0.731211,-0.030209,0.614542,0.692393,-0.038007,0.595112,0.73285,-0.011809,0.589777,0.66944,-0.030772,0.585891,0.626107,-0.036848,0.586649,0.593505,-0.040436,0.62459,0.752199,-0.01473,0.632782,0.703842,-0.039509,0.60779,0.754902,-0.034403,0.608859,0.783777,-0.022648,0.645009,0.779493,-0.020919,0.643935,0.750168,-0.048673,0.616411,0.792422,-0.035118,0.619354,0.812095,-0.018484,0.661145,0.811516,-0.02801,0.650301,0.789233,-0.046829,0.629755,0.817645,-0.039389,0.633129,0.833665,-0.029885,0,0,1
457,'2026/05/06 10:39:47:608',3,0.599225,0.883796,0,0.571767,0.847088,-0.012985,0.570057,0.780377,-0.020187,0.596873,0.732258,-0.02746,0.614356,0.692817,-0.034126,0.595079,0.733397,-0.011537,0.590301,0.669488,-0.02991,0.585865,0.626949,-0.036592,0.586371,0.594948,-0.04071,0.623549,0.75218,-0.014647,0.63301,0.703755,-0.038942,0.608398,0.751596,-0.035121,0.608212,0.780326,-0.024512,0.643747,0.779332,-0.020795,0.643893,0.749277,-0.047007,0.616348,0.789283,-0.033674,0.618343,0.808824,-0.01752,0.659662,0.811596,-0.027976,0.650973,0.788623,-0.045458,0.630096,0.814583,-0.037447,0.63261,0.829873,-0.027707,0,0,1
458,'2026/05/06 10:39:47:651',3,0.5986,0.887865,0,0.573079,0.846871,-0.012424,0.570498,0.782246,-0.020584,0.596362,0.733276,-0.029393,0.613813,0.693308,-0.037709,0.593589,0.735537,-0.008863,0.589105,0.672904,-0.026793,0.585424,0.628997,-0.032801,0.586737,0.595147,-0.036394,0.621444,0.75428,-0.012697,0.63056,0.703737,-0.036717,0.60673,0.752491,-0.032314,0.607658,0.780761,-0.021042,0.641742,0.781652,-0.019734,0.642599,0.748185,-0.045316,0.61629,0.789124,-0.031155,0.619026,0.808969,-0.014375,0.657511,0.814714,-0.027881,0.650819,0.788694,-0.043621,0.630302,0.814969,-0.034406,0.632289,0.83101,-0.023949,0,0,1
459,'2026/05/06 10:39:47:679',3,0.600142,0.884637,0,0.573091,0.844306,-0.014414,0.569906,0.779362,-0.022435,0.595501,0.731199,-0.030567,0.614023,0.691874,-0.038197,0.593989,0.731439,-0.011698,0.588564,0.666989,-0.030032,0.585605,0.624363,-0.036821,0.587316,0.592007,-0.041153,0.622654,0.750962,-0.014575,0.631963,0.703899,-0.039274,0.607895,0.753159,-0.036186,0.607269,0.781921,-0.026134,0.643427,0.779141,-0.020584,0.644085,0.74894,-0.048166,0.6169,0.790201,-0.035602,0.617989,0.810184,-0.019607,0.658806,0.812491,-0.027668,0.651698,0.788128,-0.046845,0.630544,0.815548,-0.03915,0.631517,0.83242,-0.029162,0,0,1
460,'2026/05/06 10:39:47:707',3,0.601001,0.883772,0,0.572625,0.847417,-0.013624,0.569349,0.779293,-0.021045,0.596565,0.729832,-0.028502,0.614606,0.690823,-0.035476,0.59441,0.732703,-0.012207,0.588262,0.667771,-0.030489,0.58454,0.625424,-0.036895,0.58552,0.593191,-0.04081,0.622859,0.752319,-0.014881,0.631558,0.705157,-0.039396,0.607812,0.754481,-0.035597,0.607595,0.782995,-0.025014,0.643372,0.779798,-0.020592,0.643311,0.75079,-0.047838,0.616012,0.792309,-0.035129,0.616973,0.812172,-0.019103,0.659651,0.811763,-0.027247,0.651059,0.789143,-0.045954,0.630038,0.816934,-0.038557,0.631431,0.833215,-0.028955,0,0,1
461,'2026/05/06 10:39:47:739',3,0.600698,0.883961,0,0.572039,0.848714,-0.011856,0.569266,0.781316,-0.018297,0.595813,0.732108,-0.024872,0.612741,0.692383,-0.031143,0.593544,0.734019,-0.011571,0.58888,0.669466,-0.029661,0.584803,0.626268,-0.036289,0.584914,0.593923,-0.040376,0.622102,0.753256,-0.014538,0.631324,0.703786,-0.037705,0.607047,0.752978,-0.032952,0.606612,0.782405,-0.021907,0.642229,0.780687,-0.020365,0.643754,0.748557,-0.046938,0.61675,0.790114,-0.03388,0.617708,0.811691,-0.017817,0.658553,0.812866,-0.026876,0.651335,0.788176,-0.046019,0.630154,0.815718,-0.038673,0.630712,0.833305,-0.029133,0,0,1
462,'2026/05/06 10:39:47:770',3,0.600698,0.883961,0,0.572039,0.848714,-0.011856,0.569266,0.781316,-0.018297,0.595813,0.732108,-0.024872,0.612741,0.692383,-0.031143,0.593544,0.734019,-0.011571,0.58888,0.669466,-0.029661,0.584803,0.626268,-0.036289,0.584914,0.593923,-0.040376,0.622102,0.753256,-0.014538,0.631324,0.703786,-0.037705,0.607047,0.752978,-0.032952,0.606612,0.782405,-0.021907,0.642229,0.780687,-0.020365,0.643754,0.748557,-0.046938,0.61675,0.790114,-0.03388,0.617708,0.811691,-0.017817,0.658553,0.812866,-0.026876,0.651335,0.788176,-0.046019,0.630154,0.815718,-0.038673,0.630712,0.833305,-0.029133,0,0,1
463,'2026/05/06 10:39:47:802',3,0.598901,0.886218,0,0.571819,0.846779,-0.012831,0.569935,0.781186,-0.020116,0.595342,0.733497,-0.027673,0.612935,0.694296,-0.034696,0.593706,0.733506,-0.010735,0.588682,0.669305,-0.029448,0.583971,0.626919,-0.036713,0.584523,0.594621,-0.041185,0.622149,0.752575,-0.01405,0.63115,0.704093,-0.038566,0.607496,0.752228,-0.035627,0.607636,0.781314,-0.0257,0.642764,0.780106,-0.020375,0.643189,0.748449,-0.047046,0.616172,0.789374,-0.034242,0.61793,0.810171,-0.018269,0.658855,0.813073,-0.027684,0.651148,0.788594,-0.045676,0.630151,0.815337,-0.037572,0.631606,0.832104,-0.027494,0,0,1
464,'2026/05/06 10:39:47:832',3,0.598617,0.885646,0,0.571644,0.84512,-0.014926,0.569479,0.780131,-0.023207,0.594631,0.732868,-0.031442,0.613442,0.693707,-0.039043,0.593229,0.732601,-0.012228,0.587892,0.667367,-0.030832,0.583962,0.624936,-0.038053,0.585172,0.592262,-0.042588,0.621683,0.752189,-0.014932,0.631749,0.704924,-0.04048,0.607979,0.751933,-0.038756,0.606911,0.78084,-0.029511,0.642138,0.780106,-0.020645,0.642838,0.750186,-0.048115,0.615276,0.790532,-0.036293,0.616409,0.81063,-0.020793,0.657776,0.813343,-0.027471,0.649426,0.789599,-0.045885,0.628951,0.816564,-0.038172,0.630907,0.833274,-0.02823,0,0,1
465,'2026/05/06 10:39:47:865',3,0.599412,0.884701,0,0.572186,0.845211,-0.014062,0.569889,0.779165,-0.021369,0.595459,0.730804,-0.028758,0.612568,0.690794,-0.035599,0.593825,0.7316,-0.011992,0.588532,0.665505,-0.030886,0.584587,0.623061,-0.038107,0.586048,0.590703,-0.04251,0.622474,0.751501,-0.014483,0.631924,0.704999,-0.039623,0.606883,0.754686,-0.0364,0.606306,0.784686,-0.026047,0.642844,0.779695,-0.020089,0.644073,0.749879,-0.04801,0.615949,0.790352,-0.035679,0.617335,0.810966,-0.019692,0.658537,0.812672,-0.026656,0.65111,0.790191,-0.045554,0.629459,0.816224,-0.037972,0.630525,0.832806,-0.02814,0,0,1
466,'2026/05/06 10:39:47:895',3,0.599669,0.884968,0,0.572105,0.846409,-0.014917,0.567604,0.780622,-0.023779,0.593435,0.732475,-0.032733,0.611875,0.69368,-0.04095,0.592928,0.730725,-0.012987,0.587319,0.666599,-0.03228,0.583704,0.624296,-0.039332,0.585291,0.591804,-0.043761,0.621717,0.750432,-0.015481,0.6299,0.703605,-0.040132,0.605934,0.754052,-0.036096,0.607147,0.781958,-0.025583,0.642472,0.7787,-0.021292,0.641949,0.749084,-0.048568,0.614588,0.790865,-0.03531,0.616681,0.810057,-0.019139,0.658311,0.811911,-0.028281,0.650025,0.788874,-0.04679,0.6287,0.815904,-0.039065,0.630225,0.831698,-0.029355,0,0,1
467,'2026/05/06 10:39:47:928',3,0.598624,0.884313,0,0.570825,0.847221,-0.013423,0.567435,0.780679,-0.021235,0.59395,0.732566,-0.029417,0.612665,0.693971,-0.037178,0.592912,0.732537,-0.010932,0.587496,0.668248,-0.029576,0.583174,0.625753,-0.036385,0.583913,0.593554,-0.040539,0.621382,0.752208,-0.01419,0.630638,0.704472,-0.038816,0.606839,0.75363,-0.03552,0.607533,0.782631,-0.025256,0.641623,0.780083,-0.020572,0.643146,0.74843,-0.048142,0.615475,0.790028,-0.035633,0.616921,0.810951,-0.019686,0.657496,0.813205,-0.027896,0.650726,0.78841,-0.046989,0.629016,0.815813,-0.039401,0.629566,0.833288,-0.029515,0,0,1
468,'2026/05/06 10:39:47:958',3,0.599114,0.885768,0,0.571404,0.847792,-0.014973,0.568112,0.781264,-0.023434,0.594151,0.732818,-0.031985,0.61269,0.694084,-0.039818,0.593573,0.733225,-0.012349,0.587889,0.66876,-0.031187,0.583731,0.625792,-0.037665,0.58482,0.593348,-0.041666,0.622564,0.75223,-0.014877,0.63101,0.705107,-0.039856,0.606887,0.754856,-0.036156,0.608059,0.783593,-0.025582,0.643334,0.779818,-0.020697,0.642434,0.750808,-0.047974,0.614879,0.792018,-0.03494,0.6174,0.811427,-0.018806,0.659269,0.812233,-0.027711,0.649488,0.789729,-0.04606,0.628908,0.816557,-0.038491,0.631932,0.832324,-0.028856,0,0,1
469,'2026/05/06 10:39:47:988',3,0.599678,0.885445,0,0.571265,0.849033,-0.012697,0.568856,0.781808,-0.019689,0.596696,0.733868,-0.026614,0.614807,0.695393,-0.032994,0.593191,0.734016,-0.012628,0.58841,0.670147,-0.031145,0.58403,0.626517,-0.038075,0.584166,0.593179,-0.042538,0.622438,0.753571,-0.015183,0.631784,0.706295,-0.039155,0.607453,0.756307,-0.034648,0.606975,0.78569,-0.023757,0.64274,0.780498,-0.020656,0.642986,0.751894,-0.047616,0.61575,0.793637,-0.034555,0.617413,0.813989,-0.018549,0.659231,0.812359,-0.026918,0.649009,0.7911,-0.045536,0.628721,0.819239,-0.03821,0.631595,0.835253,-0.028959,0,0,1
470,'2026/05/06 10:39:48:019',3,0.60015,0.885563,0,0.572167,0.848363,-0.012455,0.568195,0.781603,-0.019754,0.595119,0.73297,-0.027595,0.613003,0.693904,-0.035025,0.593035,0.732861,-0.010282,0.587601,0.668169,-0.028782,0.583668,0.625363,-0.035328,0.584969,0.593096,-0.03928,0.622069,0.752586,-0.013577,0.630691,0.70479,-0.037772,0.605857,0.754586,-0.033497,0.606714,0.783803,-0.022469,0.642492,0.78058,-0.019976,0.642962,0.749025,-0.047047,0.615005,0.790123,-0.034027,0.617114,0.810848,-0.017779,0.658579,0.813595,-0.027226,0.650125,0.789585,-0.045671,0.629169,0.816397,-0.03805,0.631379,0.833313,-0.028295,0,0,1
471,'2026/05/06 10:39:48:049',3,0.599472,0.888375,0,0.572433,0.850725,-0.013694,0.569952,0.784015,-0.021314,0.596455,0.734654,-0.028846,0.61378,0.694901,-0.035598,0.593265,0.735385,-0.012282,0.588577,0.671352,-0.030235,0.584006,0.628705,-0.036672,0.584484,0.595957,-0.040914,0.622542,0.754395,-0.015239,0.630962,0.706688,-0.039954,0.607543,0.755512,-0.036677,0.607406,0.785095,-0.026588,0.642995,0.781787,-0.021159,0.642533,0.752997,-0.047137,0.616099,0.793736,-0.033721,0.618108,0.813302,-0.017796,0.658885,0.814411,-0.028228,0.649389,0.793799,-0.045514,0.629167,0.82071,-0.037693,0.631943,0.835427,-0.028256,0,0,1
472,'2026/05/06 10:39:48:081',3,0.598598,0.886478,0,0.571114,0.847986,-0.012636,0.568946,0.781587,-0.019741,0.596208,0.733423,-0.026816,0.612978,0.6941,-0.033289,0.593127,0.734683,-0.012582,0.588011,0.670366,-0.032069,0.583728,0.627469,-0.039805,0.58408,0.595064,-0.044419,0.621755,0.754443,-0.015278,0.631126,0.705915,-0.039188,0.606125,0.754044,-0.034458,0.605585,0.782497,-0.023476,0.641856,0.782215,-0.021032,0.643323,0.75092,-0.04725,0.615459,0.790065,-0.033126,0.616506,0.810183,-0.016443,0.657688,0.814968,-0.027706,0.650953,0.791442,-0.045291,0.630111,0.816683,-0.036768,0.631552,0.832383,-0.026629,0,0,1
473,'2026/05/06 10:39:48:114',3,0.598923,0.886786,0,0.572414,0.8483,-0.01419,0.568691,0.781815,-0.022434,0.594145,0.733077,-0.030911,0.612642,0.694211,-0.038783,0.593401,0.732839,-0.01221,0.587406,0.667372,-0.031379,0.583493,0.624368,-0.038345,0.584871,0.591746,-0.04262,0.622038,0.752773,-0.015099,0.630407,0.705686,-0.03963,0.605611,0.755484,-0.035677,0.606819,0.783624,-0.025115,0.642755,0.781534,-0.021213,0.642883,0.750453,-0.048621,0.614821,0.791473,-0.035414,0.617152,0.811289,-0.019097,0.658132,0.814905,-0.028394,0.650386,0.790143,-0.047613,0.628482,0.816725,-0.03983,0.62989,0.833812,-0.029724,0,0,1
474,'2026/05/06 10:39:48:145',3,0.598923,0.886786,0,0.572414,0.8483,-0.01419,0.568691,0.781815,-0.022434,0.594145,0.733077,-0.030911,0.612642,0.694211,-0.038783,0.593401,0.732839,-0.01221,0.587406,0.667372,-0.031379,0.583493,0.624368,-0.038345,0.584871,0.591746,-0.04262,0.622038,0.752773,-0.015099,0.630407,0.705686,-0.03963,0.605611,0.755484,-0.035677,0.606819,0.783624,-0.025115,0.642755,0.781534,-0.021213,0.642883,0.750453,-0.048621,0.614821,0.791473,-0.035414,0.617152,0.811289,-0.019097,0.658132,0.814905,-0.028394,0.650386,0.790143,-0.047613,0.628482,0.816725,-0.03983,0.62989,0.833812,-0.029724,0,0,1
475,'2026/05/06 10:39:48:177',3,0.599027,0.887442,0,0.570678,0.848759,-0.015039,0.568986,0.782222,-0.022793,0.595199,0.734203,-0.030252,0.612598,0.693889,-0.037087,0.593288,0.734851,-0.01363,0.58822,0.669239,-0.031981,0.585003,0.625611,-0.038721,0.586113,0.591928,-0.043066,0.622368,0.754345,-0.015734,0.631967,0.707069,-0.041345,0.608031,0.756324,-0.038503,0.606472,0.78592,-0.028349,0.642997,0.781563,-0.020836,0.642726,0.753435,-0.04921,0.615702,0.79542,-0.037357,0.616896,0.815366,-0.021696,0.659267,0.813412,-0.026924,0.649635,0.792089,-0.046372,0.629259,0.820355,-0.039438,0.631566,0.83632,-0.03015,0,0,1
476,'2026/05/06 10:39:48:209',3,0.598822,0.886751,0,0.571466,0.847236,-0.014917,0.567906,0.781215,-0.022957,0.593805,0.733621,-0.030961,0.61213,0.69528,-0.038243,0.592085,0.733518,-0.012287,0.586714,0.668119,-0.030828,0.582664,0.62562,-0.03781,0.583847,0.592771,-0.042293,0.620628,0.752574,-0.014848,0.629942,0.70569,-0.040338,0.606235,0.754458,-0.037952,0.605359,0.783478,-0.028269,0.641158,0.77998,-0.020531,0.64122,0.751101,-0.048198,0.614015,0.792669,-0.036076,0.614987,0.812721,-0.020359,0.657025,0.812692,-0.027367,0.648581,0.790417,-0.04627,0.628071,0.817748,-0.039096,0.629853,0.833763,-0.02955,0,0,1
477,'2026/05/06 10:39:48:239',3,0.5999,0.888361,0,0.571417,0.848599,-0.016829,0.568311,0.782219,-0.025434,0.593568,0.732495,-0.033578,0.611844,0.692234,-0.040829,0.593042,0.733919,-0.014725,0.587549,0.667363,-0.034402,0.584457,0.623711,-0.041858,0.585525,0.589445,-0.046634,0.622281,0.752896,-0.015985,0.629884,0.705384,-0.041583,0.606599,0.757366,-0.038049,0.606588,0.786866,-0.027719,0.643454,0.780401,-0.020646,0.642042,0.752528,-0.049556,0.615264,0.796337,-0.036784,0.617231,0.815392,-0.02054,0.659595,0.812444,-0.026533,0.650115,0.791105,-0.046673,0.629269,0.82051,-0.039545,0.631694,0.836206,-0.030071,0,0,1
478,'2026/05/06 10:39:48:270',3,0.598736,0.888986,0,0.57159,0.847207,-0.016691,0.567775,0.783021,-0.026744,0.592779,0.734949,-0.036789,0.612957,0.696362,-0.045916,0.592384,0.733477,-0.012441,0.586486,0.668239,-0.031972,0.582696,0.624639,-0.039079,0.584623,0.591145,-0.043513,0.621653,0.752443,-0.0146,0.630007,0.705203,-0.040399,0.606129,0.755425,-0.037406,0.607314,0.784343,-0.027158,0.642846,0.780298,-0.020253,0.642098,0.751067,-0.048334,0.61454,0.793602,-0.035483,0.617278,0.813247,-0.0192,0.65882,0.813408,-0.027294,0.649159,0.790981,-0.045945,0.628304,0.818991,-0.038155,0.631219,0.834922,-0.028157,0,0,1
479,'2026/05/06 10:39:48:301',3,0.599377,0.889717,0,0.571891,0.851973,-0.012678,0.568353,0.783682,-0.01915,0.595335,0.734461,-0.025855,0.612567,0.695071,-0.031864,0.590879,0.7351,-0.010547,0.58593,0.670268,-0.027931,0.582105,0.62835,-0.034048,0.582979,0.59515,-0.038188,0.619993,0.753464,-0.01401,0.628799,0.706242,-0.03865,0.606283,0.756337,-0.035685,0.605861,0.785198,-0.025954,0.641092,0.779823,-0.020391,0.641371,0.751441,-0.046832,0.615684,0.793681,-0.033538,0.617082,0.81309,-0.017644,0.657709,0.811629,-0.027842,0.649099,0.790023,-0.045549,0.628751,0.817926,-0.037638,0.630531,0.832824,-0.028117,0,0,1
480,'2026/05/06 10:39:48:333',3,0.598551,0.890641,0,0.571369,0.85236,-0.013277,0.567918,0.784546,-0.020705,0.59429,0.735011,-0.028286,0.612202,0.695436,-0.035074,0.590384,0.735601,-0.011213,0.585814,0.670841,-0.028966,0.581928,0.628363,-0.03521,0.582358,0.595191,-0.039359,0.619787,0.754178,-0.014447,0.628913,0.705196,-0.039196,0.606335,0.755304,-0.035741,0.606063,0.784776,-0.025459,0.640831,0.781169,-0.020701,0.641121,0.75192,-0.046725,0.615347,0.793925,-0.032845,0.616919,0.81309,-0.016587,0.65739,0.813378,-0.028107,0.648851,0.791204,-0.045289,0.629058,0.818678,-0.037079,0.631553,0.833014,-0.027443,0,0,1
481,'2026/05/06 10:39:48:366',3,0.599432,0.887051,0,0.572285,0.850383,-0.01409,0.56751,0.785143,-0.022821,0.593888,0.737213,-0.031524,0.612629,0.699849,-0.03927,0.591363,0.733927,-0.013395,0.586464,0.669415,-0.033185,0.581486,0.626733,-0.040617,0.582134,0.593942,-0.045228,0.620439,0.752515,-0.016072,0.628592,0.706468,-0.041095,0.605342,0.756281,-0.036975,0.606627,0.784284,-0.026403,0.641056,0.779356,-0.021995,0.640587,0.752235,-0.04856,0.614411,0.793197,-0.03459,0.617563,0.811687,-0.018239,0.657156,0.811432,-0.02913,0.64778,0.79221,-0.046306,0.627855,0.819017,-0.038126,0.631166,0.83321,-0.028476,0,0,1
482,'2026/05/06 10:39:48:406',3,0.598797,0.885834,0,0.570563,0.847928,-0.0163,0.566462,0.782716,-0.025193,0.592248,0.734031,-0.03391,0.610893,0.69435,-0.04184,0.591316,0.731688,-0.013232,0.586125,0.66632,-0.032461,0.582494,0.622813,-0.039379,0.583963,0.589487,-0.043635,0.62069,0.750975,-0.014795,0.628429,0.703992,-0.039758,0.604566,0.754886,-0.035768,0.605859,0.78404,-0.024876,0.641615,0.778887,-0.019814,0.64036,0.750352,-0.047883,0.613086,0.793145,-0.035342,0.616259,0.812544,-0.01927,0.657659,0.811386,-0.026044,0.647297,0.790219,-0.045364,0.626614,0.818542,-0.038387,0.629993,0.834566,-0.02901,0,0,1
483,'2026/05/06 10:39:48:444',3,0.598238,0.886784,0,0.570203,0.851389,-0.01219,0.567364,0.783064,-0.018587,0.595098,0.733669,-0.0251,0.611612,0.69465,-0.031084,0.591267,0.7356,-0.011226,0.58561,0.671294,-0.029278,0.581298,0.627735,-0.035883,0.581239,0.594329,-0.040174,0.620297,0.754205,-0.014333,0.628179,0.706592,-0.038358,0.604724,0.755972,-0.033909,0.604678,0.784562,-0.023127,0.640233,0.781173,-0.020429,0.640522,0.751776,-0.046596,0.614127,0.792777,-0.032718,0.616095,0.812602,-0.016486,0.656132,0.813224,-0.027481,0.646558,0.79327,-0.045269,0.626654,0.820639,-0.037608,0.629784,0.835368,-0.028344,0,0,1
484,'2026/05/06 10:39:48:480',3,0.596597,0.889699,0,0.569235,0.853944,-0.012387,0.565572,0.785864,-0.019471,0.593405,0.735582,-0.026662,0.610634,0.696033,-0.033385,0.589544,0.734969,-0.01074,0.584328,0.671837,-0.028128,0.580971,0.6273,-0.034187,0.581208,0.592687,-0.038169,0.618376,0.753449,-0.013709,0.626807,0.704902,-0.036655,0.604032,0.756349,-0.031197,0.604451,0.784271,-0.019732,0.63861,0.78022,-0.019702,0.63941,0.749506,-0.045209,0.613371,0.792409,-0.030573,0.614788,0.811898,-0.013902,0.654803,0.812031,-0.026698,0.645979,0.790073,-0.043768,0.625814,0.818633,-0.035479,0.628186,0.833368,-0.025847,0,0,1
485,'2026/05/06 10:39:48:528',3,0.597587,0.886264,0,0.569446,0.850386,-0.011542,0.565859,0.782534,-0.018563,0.594207,0.731674,-0.025729,0.610981,0.692078,-0.032309,0.58948,0.733123,-0.01152,0.584097,0.669943,-0.030425,0.580326,0.625519,-0.037561,0.57965,0.592188,-0.041868,0.619124,0.752468,-0.014159,0.626322,0.705525,-0.036617,0.603209,0.756539,-0.029968,0.604112,0.784071,-0.01785,0.639123,0.779705,-0.019905,0.639786,0.75099,-0.04507,0.613894,0.791879,-0.030038,0.615604,0.811409,-0.013216,0.655344,0.811721,-0.026487,0.646395,0.791657,-0.043502,0.626691,0.818729,-0.035218,0.629237,0.833305,-0.025624,0,0,1
486,'2026/05/06 10:39:48:568',3,0.597587,0.886264,0,0.569446,0.850386,-0.011542,0.565859,0.782534,-0.018563,0.594207,0.731674,-0.025729,0.610981,0.692078,-0.032309,0.58948,0.733123,-0.01152,0.584097,0.669943,-0.030425,0.580326,0.625519,-0.037561,0.57965,0.592188,-0.041868,0.619124,0.752468,-0.014159,0.626322,0.705525,-0.036617,0.603209,0.756539,-0.029968,0.604112,0.784071,-0.01785,0.639123,0.779705,-0.019905,0.639786,0.75099,-0.04507,0.613894,0.791879,-0.030038,0.615604,0.811409,-0.013216,0.655344,0.811721,-0.026487,0.646395,0.791657,-0.043502,0.626691,0.818729,-0.035218,0.629237,0.833305,-0.025624,0,0,1
487,'2026/05/06 10:39:48:613',3,0.596842,0.887286,0,0.569417,0.852089,-0.012724,0.565913,0.784081,-0.020254,0.593257,0.733489,-0.027919,0.609644,0.693121,-0.034935,0.590033,0.735081,-0.011439,0.584387,0.671728,-0.029931,0.579907,0.627275,-0.036366,0.579554,0.593228,-0.040331,0.619126,0.753646,-0.01425,0.626552,0.705411,-0.037863,0.603355,0.756727,-0.032227,0.604774,0.785166,-0.020371,0.6392,0.78058,-0.02023,0.638772,0.751402,-0.046112,0.612633,0.793402,-0.031779,0.615449,0.812946,-0.015149,0.655531,0.812435,-0.027204,0.645105,0.792265,-0.044318,0.625247,0.819729,-0.036403,0.628775,0.8343,-0.026992,0,0,1
488,'2026/05/06 10:39:48:649',3,0.596839,0.886531,0,0.568751,0.851281,-0.012857,0.564653,0.782878,-0.020756,0.592382,0.733672,-0.028723,0.609216,0.693445,-0.036054,0.589253,0.733203,-0.013132,0.584001,0.667828,-0.032577,0.579134,0.623629,-0.039716,0.578848,0.589983,-0.043964,0.6188,0.752148,-0.01566,0.626114,0.704983,-0.039762,0.602162,0.755759,-0.034236,0.603094,0.784516,-0.022511,0.638866,0.779009,-0.021331,0.638431,0.749693,-0.048281,0.611947,0.791537,-0.034542,0.614579,0.811849,-0.018093,0.655497,0.810712,-0.027807,0.645546,0.789531,-0.045814,0.625583,0.817334,-0.038043,0.628788,0.832991,-0.028565,0,0,1
489,'2026/05/06 10:39:48:683',3,0.595794,0.887364,0,0.567127,0.849078,-0.013122,0.56494,0.782493,-0.01996,0.591932,0.733867,-0.026738,0.608186,0.69345,-0.032752,0.588742,0.733814,-0.012363,0.583577,0.668637,-0.031113,0.578945,0.624743,-0.038291,0.579172,0.591263,-0.04298,0.618893,0.752517,-0.014991,0.627304,0.704905,-0.039605,0.603095,0.755584,-0.035474,0.603136,0.785819,-0.024723,0.639537,0.779221,-0.020647,0.638437,0.751225,-0.047419,0.611763,0.792627,-0.033972,0.614594,0.81299,-0.017853,0.655729,0.811307,-0.027274,0.644563,0.791516,-0.045465,0.624542,0.818672,-0.037901,0.628375,0.834098,-0.028567,0,0,1
490,'2026/05/06 10:39:48:723',3,0.595445,0.88594,0,0.567604,0.848253,-0.012703,0.564748,0.782359,-0.019088,0.59155,0.734716,-0.025439,0.608164,0.695463,-0.03099,0.588319,0.732894,-0.011805,0.583189,0.667546,-0.029646,0.578528,0.625208,-0.036466,0.578759,0.592371,-0.04105,0.617441,0.751435,-0.014982,0.6258,0.704164,-0.039774,0.602975,0.753139,-0.037099,0.602212,0.78248,-0.027633,0.638271,0.778505,-0.020969,0.637926,0.750218,-0.046843,0.611989,0.791091,-0.033614,0.613625,0.810446,-0.017973,0.654532,0.811002,-0.028065,0.64544,0.790359,-0.045513,0.625289,0.816987,-0.03781,0.62772,0.831327,-0.028517,0,0,1
491,'2026/05/06 10:39:48:758',3,0.595793,0.885876,0,0.567923,0.84851,-0.014096,0.564379,0.782028,-0.022169,0.589812,0.733593,-0.030048,0.607648,0.693908,-0.037108,0.588775,0.731861,-0.014551,0.583771,0.665543,-0.034114,0.579,0.62184,-0.041986,0.578897,0.588766,-0.047122,0.618095,0.75103,-0.016831,0.625715,0.704829,-0.041539,0.601527,0.75592,-0.037507,0.601425,0.785732,-0.027112,0.638562,0.778606,-0.022144,0.638011,0.750232,-0.049165,0.611262,0.792213,-0.035972,0.613613,0.812323,-0.020091,0.654514,0.81105,-0.028461,0.64485,0.790291,-0.047557,0.62469,0.817825,-0.040341,0.627659,0.83361,-0.03109,0,0,1
492,'2026/05/06 10:39:48:790',3,0.593817,0.884955,0,0.565879,0.847708,-0.01149,0.563565,0.780977,-0.018681,0.591307,0.733241,-0.026144,0.608451,0.69384,-0.033084,0.589353,0.73363,-0.01244,0.583945,0.670228,-0.031717,0.578603,0.624851,-0.039607,0.577547,0.590773,-0.044905,0.619052,0.752587,-0.01564,0.625815,0.703916,-0.038986,0.600906,0.754792,-0.033651,0.602043,0.785121,-0.022603,0.639141,0.779642,-0.021771,0.637662,0.748531,-0.047324,0.610395,0.790269,-0.032579,0.613349,0.811914,-0.01615,0.654917,0.811997,-0.028763,0.642639,0.790071,-0.046631,0.622457,0.817423,-0.03862,0.627002,0.833809,-0.029195,0,0,1
493,'2026/05/06 10:39:48:820',3,0.595208,0.883417,0,0.566182,0.848711,-0.012519,0.563094,0.780871,-0.019374,0.590522,0.7321,-0.02611,0.607728,0.692462,-0.032223,0.588523,0.732622,-0.013969,0.583833,0.666567,-0.032651,0.578869,0.621766,-0.039634,0.578711,0.588238,-0.044319,0.618339,0.751517,-0.016483,0.625032,0.702353,-0.040537,0.600217,0.753257,-0.035358,0.60136,0.784371,-0.024143,0.63869,0.778401,-0.021871,0.6373,0.747699,-0.048757,0.610266,0.789911,-0.034807,0.613395,0.811413,-0.01854,0.655128,0.809971,-0.028027,0.642908,0.788567,-0.047251,0.623175,0.816536,-0.040141,0.627984,0.832923,-0.031169,0,0,1
494,'2026/05/06 10:39:48:851',3,0.595598,0.88366,0,0.567911,0.849859,-0.011382,0.563672,0.781514,-0.018647,0.591915,0.730911,-0.026,0.60819,0.690798,-0.032704,0.588463,0.731949,-0.013018,0.583151,0.667846,-0.03284,0.579055,0.623518,-0.040384,0.578349,0.589896,-0.044782,0.617766,0.750768,-0.015596,0.624917,0.703591,-0.038476,0.601043,0.755196,-0.031041,0.60196,0.783331,-0.018166,0.637266,0.777659,-0.021313,0.637128,0.748991,-0.047459,0.611303,0.790572,-0.032528,0.613994,0.810413,-0.015455,0.653723,0.809457,-0.027694,0.643893,0.790404,-0.045262,0.624314,0.817743,-0.037169,0.627833,0.832394,-0.027638,0,0,1
495,'2026/05/06 10:39:48:880',3,0.594704,0.882775,0,0.566488,0.847834,-0.012307,0.563197,0.780939,-0.019923,0.59002,0.732913,-0.027644,0.607389,0.69418,-0.034741,0.589488,0.731498,-0.013279,0.583879,0.665618,-0.032668,0.577854,0.62084,-0.040267,0.577422,0.587257,-0.04515,0.618635,0.750307,-0.016046,0.624914,0.702361,-0.040083,0.599555,0.753074,-0.034827,0.601099,0.783505,-0.023401,0.638489,0.777557,-0.021802,0.636302,0.747219,-0.048169,0.608979,0.788799,-0.03415,0.612847,0.809797,-0.017746,0.654828,0.809923,-0.028409,0.642355,0.78914,-0.046317,0.622359,0.816192,-0.038552,0.627423,0.832103,-0.02912,0,0,1
496,'2026/05/06 10:39:48:910',3,0.593735,0.8849,0,0.566869,0.848237,-0.013018,0.562949,0.782035,-0.020846,0.589017,0.732947,-0.028802,0.606292,0.693614,-0.03609,0.58651,0.730899,-0.012319,0.581614,0.667058,-0.031386,0.577628,0.623723,-0.038705,0.57804,0.590173,-0.043376,0.615947,0.749341,-0.01533,0.623221,0.702003,-0.039469,0.60031,0.752462,-0.035161,0.600978,0.780923,-0.024583,0.636834,0.776431,-0.021427,0.635824,0.747003,-0.04752,0.610016,0.789117,-0.03347,0.61242,0.808761,-0.017152,0.653145,0.808804,-0.02859,0.643548,0.787478,-0.046008,0.623404,0.81495,-0.037803,0.626072,0.829981,-0.028084,0,0,1
497,'2026/05/06 10:39:48:942',3,0.592782,0.880188,0,0.565369,0.845848,-0.011715,0.562173,0.77896,-0.018886,0.588957,0.73071,-0.026215,0.605341,0.691976,-0.032927,0.587014,0.729291,-0.013766,0.581595,0.664026,-0.033579,0.576405,0.620613,-0.041524,0.576494,0.587873,-0.046508,0.616029,0.748497,-0.01694,0.623247,0.700868,-0.040746,0.598858,0.751057,-0.035591,0.599729,0.780215,-0.024652,0.636263,0.776459,-0.023026,0.636124,0.745314,-0.048561,0.608977,0.785961,-0.033696,0.61105,0.806631,-0.017097,0.652342,0.80959,-0.030022,0.643596,0.787636,-0.047199,0.622994,0.813332,-0.038663,0.625277,0.828894,-0.02885,0,0,1
498,'2026/05/06 10:39:48:974',3,0.592782,0.880188,0,0.565369,0.845848,-0.011715,0.562173,0.77896,-0.018886,0.588957,0.73071,-0.026215,0.605341,0.691976,-0.032927,0.587014,0.729291,-0.013766,0.581595,0.664026,-0.033579,0.576405,0.620613,-0.041524,0.576494,0.587873,-0.046508,0.616029,0.748497,-0.01694,0.623247,0.700868,-0.040746,0.598858,0.751057,-0.035591,0.599729,0.780215,-0.024652,0.636263,0.776459,-0.023026,0.636124,0.745314,-0.048561,0.608977,0.785961,-0.033696,0.61105,0.806631,-0.017097,0.652342,0.80959,-0.030022,0.643596,0.787636,-0.047199,0.622994,0.813332,-0.038663,0.625277,0.828894,-0.02885,0,0,1
499,'2026/05/06 10:39:49:014',3,0.593157,0.882454,0,0.565098,0.846841,-0.012727,0.56179,0.779961,-0.019959,0.589053,0.731369,-0.027048,0.605313,0.69175,-0.033246,0.587157,0.729295,-0.014007,0.581536,0.664788,-0.034674,0.576885,0.621246,-0.042708,0.577103,0.588659,-0.0473,0.616463,0.748646,-0.016053,0.623661,0.702353,-0.039939,0.598069,0.753246,-0.033579,0.598956,0.782043,-0.021379,0.636702,0.776171,-0.021333,0.636202,0.747712,-0.048289,0.608248,0.788373,-0.033776,0.610838,0.808248,-0.016733,0.653073,0.808337,-0.027405,0.643636,0.787865,-0.045674,0.622774,0.813955,-0.037622,0.625904,0.829406,-0.027802,0,0,1
500,'2026/05/06 10:39:49:064',3,0.593454,0.881768,0,0.565944,0.84719,-0.010925,0.56136,0.779682,-0.018168,0.588425,0.729588,-0.025679,0.604866,0.690545,-0.032578,0.585767,0.729325,-0.013007,0.579714,0.664697,-0.032929,0.575401,0.62075,-0.040476,0.575129,0.587348,-0.044976,0.615056,0.748345,-0.016188,0.620709,0.7006,-0.038594,0.59687,0.752678,-0.031298,0.598898,0.779812,-0.019023,0.635622,0.775804,-0.022462,0.63505,0.744938,-0.047336,0.608585,0.786657,-0.031412,0.611049,0.806587,-0.014249,0.652242,0.807858,-0.029583,0.643576,0.786821,-0.046497,0.622905,0.812731,-0.037852,0.624945,0.827495,-0.028057,0,0,1
501,'2026/05/06 10:39:49:100',3,0.592181,0.879525,0,0.56532,0.846692,-0.011971,0.560858,0.780329,-0.019838,0.587252,0.731105,-0.02788,0.604537,0.69238,-0.035412,0.585733,0.729271,-0.013322,0.580483,0.664305,-0.032793,0.576313,0.619879,-0.039973,0.576227,0.587033,-0.044018,0.614222,0.747613,-0.015836,0.621521,0.70139,-0.037848,0.59782,0.752207,-0.030442,0.599212,0.78013,-0.017765,0.634175,0.774855,-0.021468,0.634684,0.745391,-0.046972,0.608338,0.787067,-0.032222,0.610897,0.807603,-0.015365,0.65107,0.807543,-0.027855,0.643547,0.786852,-0.045201,0.622817,0.813215,-0.036721,0.624518,0.829195,-0.026751,0,0,1
502,'2026/05/06 10:39:49:133',3,0.592864,0.879931,0,0.56492,0.846012,-0.01161,0.56116,0.779638,-0.018291,0.588036,0.730332,-0.02498,0.604643,0.690881,-0.031006,0.585746,0.728499,-0.012675,0.580847,0.66368,-0.032556,0.576414,0.619389,-0.040606,0.575732,0.586176,-0.045291,0.614734,0.746933,-0.014949,0.622085,0.700936,-0.03758,0.598147,0.751502,-0.030854,0.59853,0.78028,-0.018525,0.634766,0.773986,-0.020374,0.634915,0.744927,-0.046502,0.608424,0.78671,-0.032377,0.610563,0.807214,-0.015733,0.651764,0.805812,-0.026484,0.64272,0.786369,-0.044679,0.622394,0.813103,-0.037079,0.625227,0.828509,-0.027622,0,0,1
503,'2026/05/06 10:39:49:163',3,0.591655,0.882151,0,0.56487,0.846509,-0.011784,0.561772,0.778197,-0.018932,0.589327,0.72793,-0.026273,0.605809,0.688194,-0.032864,0.586363,0.729263,-0.012209,0.580304,0.664491,-0.032409,0.575826,0.620201,-0.039972,0.575321,0.586504,-0.044187,0.615325,0.748454,-0.015017,0.622195,0.701622,-0.038408,0.597907,0.752612,-0.031528,0.599115,0.78009,-0.018877,0.635379,0.775919,-0.021114,0.634853,0.746549,-0.047703,0.607939,0.787913,-0.032682,0.610486,0.807286,-0.015268,0.651714,0.808104,-0.027989,0.642739,0.787191,-0.045706,0.622328,0.813576,-0.037055,0.625271,0.828539,-0.0268,0,0,1
504,'2026/05/06 10:39:49:194',3,0.591873,0.877721,0,0.56484,0.846252,-0.01113,0.560608,0.778818,-0.018815,0.587864,0.728579,-0.026838,0.604782,0.689715,-0.034352,0.585628,0.726917,-0.012238,0.580252,0.663202,-0.031396,0.576471,0.617981,-0.03814,0.576546,0.584841,-0.041861,0.61445,0.746125,-0.014954,0.620583,0.701403,-0.036036,0.596393,0.752678,-0.027291,0.598822,0.779254,-0.01377,0.633943,0.773809,-0.020907,0.634258,0.744321,-0.045721,0.607352,0.785612,-0.030299,0.610108,0.805387,-0.013177,0.6504,0.805819,-0.027548,0.641894,0.785753,-0.044151,0.621302,0.811652,-0.035627,0.62382,0.826623,-0.025831,0,0,1
505,'2026/05/06 10:39:49:227',3,0.591569,0.88059,0,0.564419,0.845584,-0.011719,0.560008,0.779127,-0.020357,0.586464,0.729413,-0.029486,0.603981,0.689749,-0.038209,0.585497,0.727658,-0.012202,0.579739,0.663298,-0.032137,0.575232,0.61827,-0.039624,0.574789,0.585402,-0.043651,0.614362,0.746804,-0.015164,0.621262,0.70124,-0.037777,0.596054,0.751658,-0.03045,0.596738,0.779634,-0.017411,0.634111,0.774498,-0.021381,0.633869,0.744934,-0.047272,0.606405,0.786269,-0.032912,0.608762,0.807288,-0.016007,0.65044,0.806951,-0.02831,0.641043,0.785763,-0.045415,0.620265,0.812052,-0.036996,0.622686,0.828653,-0.02695,0,0,1
506,'2026/05/06 10:39:49:256',3,0.592367,0.880824,0,0.564422,0.84638,-0.012452,0.560405,0.778388,-0.019539,0.586516,0.7293,-0.026492,0.603667,0.690617,-0.032613,0.586547,0.728688,-0.014631,0.581153,0.663768,-0.03436,0.576715,0.620106,-0.041965,0.576072,0.586991,-0.046618,0.615596,0.747561,-0.016502,0.621659,0.7015,-0.038808,0.597412,0.753359,-0.031801,0.598291,0.782084,-0.019661,0.635527,0.775249,-0.02146,0.634267,0.746846,-0.047357,0.607679,0.789261,-0.033135,0.610554,0.808871,-0.016824,0.651819,0.807217,-0.027156,0.640935,0.787888,-0.045801,0.621666,0.815042,-0.038736,0.626255,0.830339,-0.029852,0,0,1
507,'2026/05/06 10:39:49:288',3,0.590921,0.878351,0,0.564565,0.846047,-0.010426,0.560847,0.777997,-0.017497,0.587672,0.727513,-0.025111,0.604382,0.688657,-0.032388,0.585439,0.728169,-0.010632,0.579492,0.66515,-0.029666,0.575645,0.619376,-0.036744,0.575335,0.586039,-0.040752,0.614078,0.746781,-0.013917,0.620748,0.701951,-0.035561,0.596426,0.752761,-0.027708,0.597721,0.78,-0.014501,0.633526,0.774653,-0.020375,0.634011,0.744655,-0.045475,0.607526,0.785781,-0.030611,0.61027,0.806156,-0.0136,0.649817,0.807262,-0.027467,0.640647,0.787023,-0.044326,0.620545,0.813066,-0.035846,0.623705,0.828519,-0.025875,0,0,1
508,'2026/05/06 10:39:49:319',3,0.591453,0.87919,0,0.564421,0.845401,-0.010522,0.560976,0.777342,-0.017165,0.58792,0.727651,-0.024211,0.604583,0.688707,-0.03079,0.585497,0.728386,-0.011729,0.5797,0.663427,-0.031232,0.575137,0.619104,-0.038543,0.57514,0.585791,-0.042765,0.614368,0.747685,-0.014953,0.620346,0.700779,-0.037486,0.595999,0.751077,-0.030726,0.597769,0.779058,-0.018541,0.634474,0.775166,-0.021209,0.634333,0.74396,-0.046944,0.607374,0.785133,-0.032015,0.609924,0.806253,-0.01502,0.650851,0.807322,-0.028136,0.642295,0.785429,-0.0457,0.621015,0.811237,-0.037312,0.622884,0.827384,-0.027363,0,0,1
509,'2026/05/06 10:39:49:350',3,0.591589,0.883644,0,0.56439,0.848663,-0.012076,0.560409,0.779681,-0.019159,0.587358,0.729,-0.026409,0.604178,0.689445,-0.033104,0.585212,0.7301,-0.01206,0.579322,0.666316,-0.03152,0.575349,0.62125,-0.039315,0.574498,0.587373,-0.043975,0.613693,0.748971,-0.014601,0.621323,0.701841,-0.036787,0.597489,0.752535,-0.029801,0.598239,0.780333,-0.01749,0.63356,0.776108,-0.020375,0.635178,0.745366,-0.045594,0.608557,0.786264,-0.030422,0.610309,0.806554,-0.013383,0.649817,0.808383,-0.027064,0.643253,0.787024,-0.044406,0.622358,0.812869,-0.035825,0.623914,0.828399,-0.025821,0,0,1
510,'2026/05/06 10:39:49:381',3,0.591589,0.883644,0,0.56439,0.848663,-0.012076,0.560409,0.779681,-0.019159,0.587358,0.729,-0.026409,0.604178,0.689445,-0.033104,0.585212,0.7301,-0.01206,0.579322,0.666316,-0.03152,0.575349,0.62125,-0.039315,0.574498,0.587373,-0.043975,0.613693,0.748971,-0.014601,0.621323,0.701841,-0.036787,0.597489,0.752535,-0.029801,0.598239,0.780333,-0.01749,0.63356,0.776108,-0.020375,0.635178,0.745366,-0.045594,0.608557,0.786264,-0.030422,0.610309,0.806554,-0.013383,0.649817,0.808383,-0.027064,0.643253,0.787024,-0.044406,0.622358,0.812869,-0.035825,0.623914,0.828399,-0.025821,0,0,1
511,'2026/05/06 10:39:49:417',3,0.591431,0.883268,0,0.56477,0.846559,-0.011175,0.561163,0.78,-0.018987,0.58683,0.730956,-0.027453,0.603861,0.691614,-0.035434,0.585696,0.730373,-0.011499,0.580241,0.66399,-0.031531,0.575262,0.619515,-0.039274,0.575209,0.586034,-0.043803,0.614442,0.749652,-0.015168,0.621302,0.700962,-0.038677,0.596611,0.751291,-0.03288,0.598355,0.779523,-0.021122,0.634566,0.777378,-0.021954,0.634393,0.744278,-0.047872,0.606988,0.785974,-0.033329,0.609966,0.807495,-0.016545,0.650692,0.810287,-0.02956,0.642161,0.78651,-0.047229,0.621029,0.812557,-0.038792,0.623198,0.829624,-0.028668,0,0,1
512,'2026/05/06 10:39:49:451',3,0.591959,0.885972,0,0.565725,0.848999,-0.012707,0.561996,0.782087,-0.020588,0.587292,0.731161,-0.028814,0.603959,0.690983,-0.036414,0.586154,0.731065,-0.010698,0.580004,0.667434,-0.0294,0.575837,0.622051,-0.036013,0.575846,0.588689,-0.039831,0.614845,0.749761,-0.013744,0.622292,0.70229,-0.03699,0.598044,0.753238,-0.030872,0.599056,0.781671,-0.018428,0.635003,0.777183,-0.020096,0.63482,0.747488,-0.045544,0.608142,0.788551,-0.030994,0.611133,0.808444,-0.014025,0.650855,0.809844,-0.027518,0.64225,0.789002,-0.044245,0.621669,0.81482,-0.035789,0.624422,0.830083,-0.025739,0,0,1
513,'2026/05/06 10:39:49:492',3,0.592763,0.88422,0,0.564891,0.849779,-0.011242,0.561266,0.783131,-0.018447,0.587596,0.733582,-0.025803,0.604144,0.693772,-0.032474,0.585763,0.731508,-0.012841,0.58084,0.664886,-0.032548,0.576614,0.619454,-0.040217,0.576388,0.585969,-0.044719,0.614724,0.750413,-0.015473,0.622028,0.703463,-0.03831,0.597467,0.754413,-0.031278,0.598244,0.78276,-0.018662,0.634557,0.778005,-0.021182,0.634944,0.74757,-0.046528,0.608534,0.788797,-0.031779,0.611522,0.809283,-0.014991,0.651201,0.810239,-0.027641,0.641465,0.790579,-0.04497,0.621615,0.816503,-0.037,0.625307,0.831514,-0.02744,0,0,1
514,'2026/05/06 10:39:49:522',3,0.594074,0.88572,0,0.565937,0.848842,-0.013089,0.561724,0.781596,-0.020689,0.588204,0.733107,-0.02849,0.605079,0.694087,-0.035607,0.586534,0.731024,-0.013262,0.581267,0.664785,-0.03309,0.576619,0.621914,-0.040625,0.5767,0.588705,-0.045313,0.615808,0.749892,-0.016396,0.622714,0.702761,-0.041224,0.598489,0.7541,-0.036719,0.599098,0.782328,-0.025919,0.636403,0.777372,-0.02267,0.635206,0.747189,-0.049524,0.607714,0.789886,-0.035198,0.609677,0.810023,-0.018582,0.652124,0.810026,-0.030025,0.641455,0.789143,-0.048778,0.620673,0.816644,-0.041019,0.623456,0.832208,-0.031332,0,0,1
515,'2026/05/06 10:39:49:553',3,0.593707,0.886129,0,0.566904,0.849765,-0.012715,0.562888,0.782901,-0.020976,0.589158,0.732561,-0.029462,0.605979,0.692497,-0.037396,0.587757,0.732395,-0.012599,0.581608,0.66749,-0.031951,0.577664,0.621796,-0.039056,0.577655,0.588187,-0.043217,0.61649,0.751735,-0.015536,0.623027,0.704216,-0.038388,0.59884,0.754962,-0.031691,0.600115,0.782503,-0.019344,0.63651,0.779815,-0.02173,0.636324,0.748177,-0.046874,0.609365,0.789458,-0.031534,0.611773,0.809615,-0.014422,0.652183,0.813045,-0.028975,0.643263,0.790716,-0.045994,0.622723,0.816683,-0.037309,0.625237,0.83235,-0.027169,0,0,1
516,'2026/05/06 10:39:49:594',3,0.594429,0.880765,0,0.56674,0.849816,-0.00969,0.563109,0.782803,-0.015711,0.590354,0.733698,-0.02167,0.606628,0.695105,-0.026876,0.587507,0.730321,-0.01388,0.58319,0.664991,-0.034777,0.579368,0.620087,-0.04389,0.579036,0.586778,-0.049307,0.616344,0.749949,-0.016291,0.623973,0.703631,-0.038358,0.599408,0.755383,-0.03043,0.599887,0.783666,-0.017748,0.636017,0.777746,-0.021664,0.637212,0.747873,-0.047394,0.610596,0.78908,-0.032189,0.612347,0.810252,-0.015214,0.653206,0.809884,-0.027467,0.64512,0.790958,-0.045758,0.624213,0.817293,-0.03788,0.626104,0.832559,-0.028458,0,0,1
517,'2026/05/06 10:39:49:644',3,0.59541,0.886487,0,0.567719,0.850192,-0.011865,0.564524,0.783312,-0.018408,0.591901,0.734249,-0.024888,0.608146,0.695412,-0.030546,0.587618,0.730725,-0.013249,0.582701,0.664274,-0.033293,0.579393,0.6202,-0.041288,0.579345,0.586428,-0.04599,0.616905,0.749961,-0.015757,0.625376,0.705444,-0.039179,0.602407,0.756893,-0.032814,0.602141,0.783733,-0.020802,0.637432,0.777583,-0.021399,0.637706,0.751605,-0.04769,0.611943,0.793544,-0.032873,0.613549,0.811902,-0.015869,0.653892,0.809955,-0.027881,0.645592,0.791851,-0.045844,0.625716,0.819054,-0.03756,0.627958,0.833015,-0.027695,0,0,1
518,'2026/05/06 10:39:49:691',3,0.594682,0.885006,0,0.567875,0.851572,-0.012072,0.56356,0.783521,-0.019356,0.5912,0.733834,-0.02659,0.607215,0.69429,-0.032895,0.588444,0.730283,-0.014028,0.58307,0.665632,-0.034426,0.579545,0.62074,-0.042576,0.579721,0.586192,-0.047519,0.617528,0.750414,-0.016561,0.62424,0.705181,-0.039557,0.601288,0.756985,-0.032471,0.602661,0.782964,-0.020421,0.637499,0.778362,-0.022293,0.638102,0.750106,-0.0479,0.611712,0.791552,-0.031948,0.613172,0.810044,-0.014712,0.653899,0.810925,-0.028971,0.646502,0.791452,-0.046139,0.62535,0.81805,-0.037244,0.626475,0.831697,-0.027296,0,0,1
519,'2026/05/06 10:39:49:731',3,0.595857,0.888604,0,0.567515,0.851562,-0.013951,0.563843,0.78519,-0.021631,0.59103,0.736619,-0.029159,0.60832,0.696762,-0.035704,0.588801,0.73241,-0.013174,0.584066,0.666672,-0.032216,0.579606,0.622621,-0.039259,0.580053,0.589245,-0.043749,0.618981,0.7516,-0.015607,0.626831,0.705885,-0.040662,0.601991,0.757644,-0.036194,0.602204,0.787726,-0.025057,0.639755,0.779143,-0.021204,0.63838,0.752734,-0.048463,0.6113,0.79498,-0.03479,0.614372,0.814679,-0.018367,0.656055,0.811716,-0.027843,0.644144,0.793967,-0.046138,0.623983,0.821549,-0.038674,0.628454,0.835864,-0.029372,0,0,1
520,'2026/05/06 10:39:49:771',3,0.595724,0.888125,0,0.568399,0.85236,-0.011821,0.564626,0.7841,-0.018866,0.591035,0.733894,-0.026081,0.607822,0.694366,-0.032624,0.588488,0.734042,-0.012384,0.583489,0.667346,-0.031853,0.57947,0.621834,-0.039384,0.579232,0.5875,-0.044068,0.617662,0.753203,-0.015481,0.625108,0.705299,-0.039498,0.601331,0.756521,-0.03387,0.601957,0.785429,-0.022149,0.637825,0.780712,-0.021645,0.637434,0.750845,-0.048044,0.611518,0.792734,-0.033469,0.614206,0.813218,-0.016604,0.654068,0.813314,-0.028675,0.645252,0.792123,-0.046992,0.624928,0.81928,-0.038974,0.627557,0.834973,-0.02921,0,0,1
521,'2026/05/06 10:39:49:810',3,0.596836,0.89,0,0.568012,0.854067,-0.013892,0.563038,0.785449,-0.021447,0.589765,0.735115,-0.029031,0.607375,0.695309,-0.035833,0.5877,0.735928,-0.012434,0.582355,0.668171,-0.031073,0.57816,0.624393,-0.037706,0.578938,0.590517,-0.041993,0.617053,0.75451,-0.015283,0.625187,0.706558,-0.040661,0.60164,0.757035,-0.036942,0.601632,0.785699,-0.026442,0.638014,0.781128,-0.021254,0.637572,0.752268,-0.048649,0.611121,0.795053,-0.035198,0.613052,0.814873,-0.018937,0.65485,0.812647,-0.028328,0.645185,0.791698,-0.047081,0.624598,0.819744,-0.039704,0.627166,0.834688,-0.030353,0,0,1
522,'2026/05/06 10:39:49:859',3,0.59626,0.888994,0,0.568063,0.851927,-0.012898,0.563734,0.784299,-0.020271,0.591045,0.735678,-0.027729,0.607785,0.696269,-0.034384,0.588082,0.734223,-0.012758,0.583528,0.668896,-0.031681,0.579396,0.624917,-0.038649,0.579699,0.590266,-0.043222,0.617701,0.753328,-0.015703,0.625187,0.706059,-0.039955,0.601786,0.757633,-0.035124,0.602802,0.786181,-0.024274,0.638396,0.780503,-0.021721,0.63771,0.75211,-0.048312,0.611575,0.794872,-0.033774,0.614232,0.814227,-0.017242,0.654812,0.812699,-0.028745,0.644706,0.792505,-0.046902,0.624576,0.820802,-0.038856,0.627731,0.83558,-0.029368,0,0,1
523,'2026/05/06 10:39:49:900',3,0.594361,0.890215,0,0.566914,0.852016,-0.012185,0.564027,0.785369,-0.019163,0.590381,0.737236,-0.026318,0.607097,0.697105,-0.032709,0.587998,0.734369,-0.011998,0.583946,0.66856,-0.030552,0.579893,0.624367,-0.037948,0.580075,0.590075,-0.042949,0.617261,0.753784,-0.015528,0.625162,0.70593,-0.040231,0.601494,0.756639,-0.036702,0.601156,0.78675,-0.02664,0.637589,0.781591,-0.021918,0.637351,0.751734,-0.04786,0.611184,0.793269,-0.033734,0.613434,0.813904,-0.017564,0.653586,0.815076,-0.029337,0.644283,0.793538,-0.046786,0.62429,0.820478,-0.038564,0.627236,0.835897,-0.028992,0,0,1
524,'2026/05/06 10:39:49:933',3,0.595267,0.888472,0,0.567551,0.853181,-0.014338,0.562707,0.78628,-0.022091,0.589095,0.737449,-0.029552,0.606234,0.698681,-0.036059,0.587019,0.733877,-0.014745,0.582707,0.666369,-0.033974,0.579642,0.623227,-0.041257,0.580777,0.589697,-0.045992,0.61592,0.752938,-0.017241,0.624394,0.706725,-0.04214,0.601536,0.758114,-0.037652,0.601039,0.785321,-0.027018,0.636563,0.780329,-0.022876,0.637483,0.752503,-0.049727,0.61142,0.79469,-0.035302,0.612269,0.812997,-0.018782,0.652789,0.812642,-0.02974,0.64561,0.793183,-0.048294,0.624714,0.820593,-0.04035,0.625493,0.834187,-0.030768,0,0,1
525,'2026/05/06 10:39:49:979',3,0.594373,0.889469,0,0.566463,0.850972,-0.01232,0.563134,0.78434,-0.019869,0.589656,0.73591,-0.027728,0.605998,0.696633,-0.034887,0.587831,0.733967,-0.012206,0.583518,0.667235,-0.031742,0.57997,0.622343,-0.039496,0.580514,0.588316,-0.044282,0.616538,0.753707,-0.015321,0.624278,0.707205,-0.03954,0.600305,0.757982,-0.034503,0.600475,0.786956,-0.023218,0.636578,0.78181,-0.02156,0.63689,0.752931,-0.047788,0.610649,0.794384,-0.033394,0.612959,0.814695,-0.016693,0.652596,0.815084,-0.028777,0.64482,0.794255,-0.046201,0.624766,0.821032,-0.037752,0.627199,0.836648,-0.027837,0,0,1
526,'2026/05/06 10:39:50:013',3,0.593412,0.888122,0,0.567116,0.851824,-0.011826,0.563575,0.784461,-0.019304,0.589589,0.733521,-0.026962,0.605892,0.693299,-0.033988,0.58697,0.734202,-0.012502,0.582676,0.668809,-0.031197,0.580094,0.623184,-0.038161,0.581079,0.588714,-0.042596,0.615494,0.75412,-0.015693,0.622474,0.705543,-0.038724,0.599699,0.757411,-0.03253,0.601153,0.785608,-0.020833,0.635809,0.782417,-0.021891,0.636906,0.749489,-0.046771,0.611239,0.791849,-0.030943,0.613313,0.812747,-0.013819,0.652406,0.81584,-0.029115,0.645487,0.793248,-0.045847,0.624692,0.819645,-0.036922,0.625898,0.834975,-0.026925,0,0,1
527,'2026/05/06 10:39:50:053',3,0.594625,0.888402,0,0.567758,0.853137,-0.012538,0.56276,0.785554,-0.020597,0.589456,0.735118,-0.028828,0.606673,0.695944,-0.036383,0.586539,0.73366,-0.013177,0.582082,0.667751,-0.032298,0.579115,0.622745,-0.039258,0.58038,0.587603,-0.043713,0.615701,0.752692,-0.016177,0.622744,0.705331,-0.03989,0.599724,0.756775,-0.034017,0.60087,0.78432,-0.022457,0.636202,0.780271,-0.022256,0.635861,0.750516,-0.047651,0.610024,0.792844,-0.032472,0.612523,0.812025,-0.015738,0.652785,0.812755,-0.029388,0.643454,0.791918,-0.046055,0.623646,0.819671,-0.037499,0.626784,0.834425,-0.027837,0,0,1
528,'2026/05/06 10:39:50:082',3,0.594835,0.887766,0,0.56664,0.851363,-0.012352,0.562288,0.784401,-0.019916,0.589221,0.734935,-0.027652,0.605939,0.695631,-0.034709,0.586757,0.73286,-0.013201,0.58249,0.666611,-0.032608,0.579435,0.621716,-0.039881,0.579793,0.58761,-0.044332,0.616012,0.752338,-0.015966,0.624102,0.705728,-0.039541,0.600234,0.757172,-0.033403,0.600477,0.785198,-0.021506,0.636563,0.780037,-0.021856,0.636465,0.752329,-0.047656,0.610511,0.794035,-0.03271,0.612728,0.813507,-0.015856,0.652949,0.812435,-0.028708,0.644,0.792539,-0.046261,0.624366,0.819807,-0.03811,0.627436,0.834996,-0.028508,0,0,1
529,'2026/05/06 10:39:50:115',3,0.595284,0.886053,0,0.567004,0.850265,-0.013424,0.562635,0.783984,-0.021681,0.58969,0.735552,-0.029754,0.60689,0.696619,-0.036969,0.587471,0.732857,-0.015781,0.58293,0.666207,-0.037065,0.579307,0.621813,-0.045733,0.579652,0.588127,-0.05101,0.617649,0.752191,-0.018011,0.624379,0.706533,-0.042808,0.599976,0.758589,-0.037126,0.600587,0.78732,-0.025527,0.638266,0.779861,-0.023438,0.637045,0.752636,-0.050746,0.609873,0.794749,-0.03619,0.612079,0.814543,-0.019276,0.654653,0.812366,-0.02977,0.644456,0.792858,-0.048622,0.624059,0.820085,-0.04078,0.62716,0.835099,-0.031093,0,0,1
530,'2026/05/06 10:39:50:149',3,0.595451,0.886025,0,0.566427,0.851344,-0.013993,0.561268,0.784083,-0.021925,0.588266,0.735273,-0.029631,0.605865,0.69616,-0.036577,0.586144,0.730888,-0.01517,0.582319,0.663371,-0.035106,0.57878,0.619994,-0.04267,0.579463,0.586648,-0.047346,0.616012,0.750652,-0.017335,0.623604,0.703879,-0.041492,0.599834,0.755814,-0.036073,0.600077,0.784251,-0.024686,0.63674,0.778886,-0.022674,0.63628,0.750025,-0.049679,0.609481,0.793519,-0.035573,0.610984,0.813919,-0.01901,0.653161,0.812111,-0.029,0.644235,0.790698,-0.048524,0.623357,0.819296,-0.041175,0.624741,0.835622,-0.031662,0,0,1
531,'2026/05/06 10:39:50:177',3,0.595451,0.886025,0,0.566427,0.851344,-0.013993,0.561268,0.784083,-0.021925,0.588266,0.735273,-0.029631,0.605865,0.69616,-0.036577,0.586144,0.730888,-0.01517,0.582319,0.663371,-0.035106,0.57878,0.619994,-0.04267,0.579463,0.586648,-0.047346,0.616012,0.750652,-0.017335,0.623604,0.703879,-0.041492,0.599834,0.755814,-0.036073,0.600077,0.784251,-0.024686,0.63674,0.778886,-0.022674,0.63628,0.750025,-0.049679,0.609481,0.793519,-0.035573,0.610984,0.813919,-0.01901,0.653161,0.812111,-0.029,0.644235,0.790698,-0.048524,0.623357,0.819296,-0.041175,0.624741,0.835622,-0.031662,0,0,1
532,'2026/05/06 10:39:50:208',3,0.594499,0.885065,0,0.566195,0.85047,-0.014255,0.561103,0.783363,-0.023005,0.587426,0.734707,-0.031583,0.605741,0.695616,-0.039246,0.587129,0.729847,-0.015453,0.582941,0.662586,-0.035897,0.579229,0.618604,-0.043738,0.580086,0.585097,-0.048474,0.616699,0.750357,-0.01725,0.62293,0.705545,-0.041479,0.598595,0.757687,-0.035645,0.600196,0.786069,-0.023951,0.637057,0.779199,-0.022287,0.636276,0.751095,-0.049463,0.608978,0.793783,-0.035524,0.611707,0.813376,-0.01904,0.653515,0.812243,-0.028251,0.643792,0.791796,-0.047159,0.623257,0.819404,-0.039776,0.626228,0.834955,-0.030397,0,0,1
533,'2026/05/06 10:39:50:239',3,0.593659,0.885186,0,0.566203,0.85124,-0.010876,0.561269,0.783697,-0.018883,0.588066,0.733698,-0.027313,0.605354,0.694594,-0.035196,0.586158,0.732889,-0.01444,0.581446,0.666634,-0.036422,0.577302,0.621562,-0.04566,0.57759,0.587272,-0.051223,0.616113,0.752762,-0.017569,0.623008,0.704285,-0.041065,0.597722,0.756429,-0.034094,0.599242,0.784884,-0.021967,0.636467,0.780884,-0.023799,0.636402,0.748128,-0.050037,0.608255,0.790467,-0.034499,0.610344,0.812501,-0.017302,0.652976,0.813636,-0.030694,0.64325,0.791269,-0.049016,0.621978,0.8182,-0.04077,0.624347,0.835224,-0.030969,0,0,1
534,'2026/05/06 10:39:50:271',3,0.595107,0.888145,0,0.566011,0.854685,-0.012914,0.561223,0.785137,-0.019584,0.589055,0.734307,-0.026004,0.605374,0.695186,-0.031524,0.585266,0.7311,-0.014194,0.580678,0.663818,-0.034455,0.576663,0.621067,-0.04221,0.577112,0.587551,-0.046866,0.615053,0.750756,-0.016445,0.622148,0.705627,-0.040143,0.598081,0.758723,-0.033642,0.599081,0.784669,-0.021726,0.635492,0.778717,-0.021969,0.636509,0.751397,-0.048604,0.609109,0.793768,-0.033517,0.610142,0.812633,-0.016496,0.651557,0.810951,-0.028476,0.644224,0.792361,-0.047374,0.6221,0.819268,-0.039618,0.621987,0.833598,-0.030022,0,0,1
535,'2026/05/06 10:39:50:304',3,0.593298,0.887672,0,0.565005,0.85292,-0.011104,0.56091,0.785799,-0.01833,0.588032,0.735384,-0.025723,0.604262,0.695966,-0.032582,0.584875,0.732653,-0.013156,0.580133,0.666814,-0.033259,0.576994,0.621185,-0.041208,0.577264,0.586586,-0.04592,0.614404,0.752399,-0.016022,0.621614,0.704324,-0.038709,0.598137,0.757117,-0.031357,0.599161,0.784668,-0.018731,0.634665,0.780433,-0.021969,0.635702,0.748873,-0.047811,0.609134,0.792038,-0.032324,0.610642,0.812943,-0.015011,0.651337,0.813164,-0.028643,0.64301,0.792969,-0.046428,0.622364,0.820526,-0.038068,0.623904,0.835947,-0.028232,0,0,1
536,'2026/05/06 10:39:50:333',3,0.594388,0.888555,0,0.5658,0.85125,-0.013791,0.560802,0.784455,-0.021574,0.587042,0.734462,-0.029332,0.605025,0.694753,-0.036285,0.585175,0.732715,-0.012672,0.580296,0.665882,-0.032442,0.576468,0.622029,-0.040197,0.577292,0.588653,-0.045071,0.614758,0.752063,-0.015187,0.622355,0.705372,-0.040238,0.598102,0.756972,-0.035859,0.598205,0.785887,-0.025009,0.635572,0.779495,-0.020985,0.635585,0.750736,-0.048517,0.608299,0.793759,-0.034595,0.609779,0.814437,-0.017948,0.651897,0.811802,-0.027856,0.642886,0.79079,-0.047137,0.621482,0.818696,-0.039647,0.623086,0.83445,-0.030031,0,0,1
537,'2026/05/06 10:39:50:364',3,0.592666,0.888977,0,0.564943,0.852323,-0.014028,0.560148,0.784452,-0.022522,0.587336,0.73457,-0.030917,0.604705,0.695935,-0.038374,0.584828,0.732556,-0.014419,0.580331,0.666272,-0.034291,0.577146,0.621859,-0.041487,0.578374,0.587689,-0.045906,0.614124,0.751857,-0.016968,0.621924,0.705414,-0.041454,0.597987,0.757587,-0.035526,0.598802,0.784176,-0.023751,0.63492,0.77962,-0.02279,0.635312,0.750789,-0.048917,0.608846,0.792816,-0.033249,0.610616,0.811624,-0.015925,0.651357,0.812324,-0.029885,0.643426,0.791443,-0.047375,0.62294,0.818564,-0.038649,0.62487,0.833204,-0.028559,0,0,1
538,'2026/05/06 10:39:50:403',3,0.591902,0.886609,0,0.564317,0.85178,-0.012309,0.560684,0.784252,-0.019134,0.587666,0.735297,-0.025913,0.603944,0.696192,-0.031847,0.585687,0.732067,-0.013409,0.580646,0.665571,-0.033772,0.576265,0.62061,-0.042225,0.576653,0.586451,-0.047583,0.614977,0.751761,-0.016189,0.621036,0.704297,-0.040208,0.596445,0.755937,-0.034488,0.597798,0.784554,-0.023094,0.635414,0.780196,-0.022164,0.635659,0.749133,-0.048227,0.608519,0.790911,-0.032971,0.610948,0.812039,-0.015974,0.651796,0.813539,-0.029161,0.644374,0.793045,-0.047387,0.622854,0.818761,-0.039281,0.624479,0.83422,-0.029557,0,0,1
539,'2026/05/06 10:39:50:442',3,0.594607,0.8873,0,0.566355,0.853337,-0.01218,0.561441,0.785304,-0.018971,0.587791,0.734525,-0.025618,0.604211,0.694746,-0.031426,0.584626,0.731861,-0.013307,0.579512,0.665522,-0.03328,0.575796,0.620428,-0.041051,0.576451,0.586225,-0.045765,0.614336,0.751025,-0.015794,0.622138,0.705141,-0.039755,0.597889,0.756493,-0.033351,0.59871,0.784145,-0.02114,0.634857,0.77838,-0.021453,0.635589,0.750832,-0.04779,0.608713,0.792248,-0.032717,0.611381,0.811168,-0.015593,0.651649,0.810306,-0.028011,0.642691,0.792604,-0.045912,0.621979,0.819177,-0.037853,0.625054,0.832887,-0.028222,0,0,1
540,'2026/05/06 10:39:50:474',3,0.593888,0.88652,0,0.565415,0.852861,-0.011895,0.561065,0.784192,-0.018726,0.588599,0.733729,-0.02555,0.603935,0.693669,-0.031652,0.585095,0.731781,-0.013034,0.579707,0.666202,-0.032766,0.576399,0.620581,-0.04034,0.57698,0.585935,-0.04483,0.613919,0.751442,-0.015474,0.621504,0.704385,-0.038173,0.598117,0.75574,-0.030716,0.599336,0.782394,-0.018029,0.63383,0.779271,-0.021128,0.635458,0.74934,-0.046841,0.608883,0.791011,-0.031391,0.610663,0.810383,-0.014132,0.650576,0.8115,-0.027654,0.643446,0.79283,-0.045057,0.622492,0.81929,-0.036774,0.623917,0.833238,-0.027128,0,0,1
541,'2026/05/06 10:39:50:522',3,0.593015,0.887827,0,0.565479,0.854792,-0.012486,0.560159,0.786652,-0.020086,0.587358,0.735512,-0.02773,0.602843,0.695343,-0.034583,0.584056,0.733042,-0.013863,0.579153,0.667435,-0.03317,0.576531,0.622142,-0.040144,0.577539,0.587184,-0.044515,0.613712,0.752081,-0.016704,0.621069,0.705613,-0.04029,0.598388,0.757915,-0.03359,0.599247,0.783971,-0.021445,0.634382,0.779103,-0.022655,0.634415,0.750896,-0.048281,0.608652,0.793368,-0.032606,0.61004,0.811729,-0.015463,0.651098,0.810653,-0.029659,0.642293,0.792057,-0.046838,0.622022,0.819538,-0.038469,0.624019,0.832905,-0.028887,0,0,1
542,'2026/05/06 10:39:50:563',3,0.59291,0.888332,0,0.566053,0.852834,-0.011679,0.561081,0.78535,-0.019091,0.587482,0.734153,-0.026821,0.603301,0.69326,-0.034102,0.584777,0.734289,-0.012328,0.579234,0.668748,-0.03119,0.57617,0.622649,-0.038221,0.577291,0.587444,-0.042652,0.61362,0.752939,-0.015673,0.620506,0.704363,-0.038822,0.597782,0.755449,-0.032722,0.599362,0.783548,-0.021018,0.634152,0.780434,-0.022064,0.634666,0.748183,-0.047158,0.60869,0.789947,-0.032083,0.610845,0.810118,-0.015381,0.65073,0.812671,-0.029426,0.642546,0.791008,-0.045944,0.622491,0.817252,-0.037456,0.624981,0.832235,-0.027839,0,0,1
543,'2026/05/06 10:39:50:604',3,0.59291,0.888332,0,0.566053,0.852834,-0.011679,0.561081,0.78535,-0.019091,0.587482,0.734153,-0.026821,0.603301,0.69326,-0.034102,0.584777,0.734289,-0.012328,0.579234,0.668748,-0.03119,0.57617,0.622649,-0.038221,0.577291,0.587444,-0.042652,0.61362,0.752939,-0.015673,0.620506,0.704363,-0.038822,0.597782,0.755449,-0.032722,0.599362,0.783548,-0.021018,0.634152,0.780434,-0.022064,0.634666,0.748183,-0.047158,0.60869,0.789947,-0.032083,0.610845,0.810118,-0.015381,0.65073,0.812671,-0.029426,0.642546,0.791008,-0.045944,0.622491,0.817252,-0.037456,0.624981,0.832235,-0.027839,0,0,1
544,'2026/05/06 10:39:50:632',3,0.592253,0.888343,0,0.566123,0.852364,-0.014071,0.561503,0.785679,-0.022695,0.587867,0.736005,-0.031395,0.605588,0.697057,-0.039189,0.585589,0.732186,-0.012992,0.579991,0.666229,-0.032689,0.57582,0.621508,-0.039831,0.576436,0.587767,-0.044151,0.61511,0.751146,-0.015614,0.622141,0.706712,-0.040229,0.597764,0.757827,-0.034841,0.598878,0.785066,-0.023123,0.635724,0.778888,-0.02162,0.634746,0.752559,-0.048033,0.607829,0.793964,-0.033378,0.610959,0.81207,-0.016442,0.651792,0.811531,-0.028849,0.641507,0.793446,-0.046129,0.621424,0.819923,-0.03788,0.62547,0.833353,-0.028022,0,0,1
545,'2026/05/06 10:39:50:673',3,0.592772,0.888322,0,0.565167,0.853784,-0.012502,0.560909,0.785319,-0.019234,0.58836,0.735729,-0.025919,0.604206,0.696037,-0.03186,0.584662,0.73254,-0.013008,0.579906,0.667009,-0.031574,0.576548,0.621721,-0.038579,0.577279,0.587129,-0.043292,0.613832,0.751904,-0.015926,0.620884,0.70568,-0.039508,0.597488,0.756877,-0.034024,0.598428,0.784666,-0.022939,0.634329,0.779968,-0.021874,0.634696,0.750851,-0.047036,0.608421,0.792432,-0.031759,0.610528,0.812056,-0.015134,0.650736,0.812883,-0.028973,0.642206,0.79299,-0.046389,0.621736,0.819511,-0.038342,0.62419,0.833744,-0.029001,0,0,1
546,'2026/05/06 10:39:50:719',3,0.594343,0.888869,0,0.565377,0.852275,-0.014033,0.560204,0.785515,-0.02187,0.586952,0.736399,-0.029702,0.604818,0.697915,-0.036587,0.584568,0.732934,-0.013073,0.579646,0.666382,-0.03277,0.575813,0.623396,-0.040133,0.576608,0.589564,-0.044723,0.61435,0.751543,-0.015709,0.622338,0.706213,-0.041012,0.599093,0.758323,-0.036648,0.598902,0.785974,-0.025811,0.635327,0.77832,-0.021625,0.635456,0.751613,-0.049243,0.608704,0.795047,-0.035024,0.610034,0.813737,-0.018225,0.651803,0.810263,-0.028687,0.642514,0.791831,-0.047187,0.621733,0.820372,-0.039158,0.62365,0.834254,-0.029379,0,0,1
547,'2026/05/06 10:39:50:762',3,0.592525,0.888485,0,0.565284,0.852036,-0.013701,0.560719,0.785167,-0.021559,0.58726,0.735839,-0.029364,0.604126,0.69621,-0.036216,0.584823,0.731231,-0.013928,0.579582,0.664728,-0.034416,0.575101,0.621486,-0.042396,0.575599,0.588184,-0.047148,0.614379,0.750989,-0.016424,0.621778,0.704772,-0.040543,0.596851,0.75709,-0.034895,0.597914,0.784481,-0.023376,0.635242,0.779689,-0.022235,0.636246,0.750286,-0.048439,0.608267,0.791987,-0.033217,0.610099,0.811455,-0.016045,0.651276,0.813494,-0.029204,0.644092,0.792994,-0.047034,0.62245,0.818528,-0.038431,0.623774,0.833339,-0.028178,0,0,1
548,'2026/05/06 10:39:50:793',3,0.593703,0.889539,0,0.565806,0.853352,-0.012115,0.560829,0.787498,-0.019864,0.58812,0.738444,-0.027659,0.605104,0.69927,-0.034666,0.584947,0.732783,-0.013771,0.57984,0.665891,-0.034524,0.57576,0.620696,-0.042813,0.575994,0.586511,-0.047555,0.614266,0.752552,-0.016355,0.621556,0.70738,-0.039984,0.597647,0.758342,-0.033314,0.598447,0.785127,-0.021127,0.634397,0.780221,-0.022183,0.63486,0.752707,-0.048547,0.607984,0.793891,-0.033619,0.610024,0.813144,-0.016585,0.650707,0.812321,-0.028878,0.642315,0.793472,-0.046186,0.621452,0.820004,-0.037609,0.623354,0.834512,-0.027644,0,0,1
549,'2026/05/06 10:39:50:833',3,0.591792,0.892041,0,0.565151,0.854165,-0.012634,0.561418,0.786333,-0.020183,0.587131,0.735184,-0.027965,0.602343,0.693605,-0.034926,0.584696,0.734593,-0.012139,0.578526,0.668909,-0.031492,0.574546,0.623129,-0.038585,0.57588,0.587788,-0.043097,0.613973,0.753123,-0.015528,0.620317,0.705355,-0.039351,0.596715,0.756564,-0.033379,0.599163,0.783339,-0.02163,0.634743,0.7812,-0.022174,0.633591,0.750702,-0.047363,0.607228,0.792095,-0.031786,0.611046,0.810719,-0.014777,0.650839,0.814126,-0.030075,0.640947,0.79423,-0.046674,0.620712,0.819669,-0.038074,0.624608,0.833412,-0.02828,0,0,1
550,'2026/05/06 10:39:50:867',3,0.592302,0.887673,0,0.563819,0.853883,-0.013595,0.558779,0.785797,-0.021965,0.585743,0.7355,-0.030174,0.602913,0.695853,-0.037518,0.584256,0.731865,-0.01541,0.579246,0.665934,-0.036404,0.57515,0.622023,-0.044747,0.575474,0.588093,-0.049985,0.614293,0.75073,-0.017903,0.62061,0.70457,-0.042348,0.596692,0.758199,-0.036255,0.597919,0.786145,-0.024538,0.634939,0.778768,-0.023706,0.634476,0.749861,-0.050581,0.60748,0.794033,-0.035389,0.609361,0.814297,-0.018331,0.65134,0.811795,-0.030561,0.641833,0.792749,-0.049442,0.620781,0.82075,-0.041748,0.622781,0.835456,-0.032284,0,0,1
551,'2026/05/06 10:39:50:911',3,0.592436,0.887382,0,0.564867,0.851421,-0.013481,0.560145,0.785599,-0.021477,0.585404,0.736787,-0.02931,0.602564,0.698045,-0.036218,0.584147,0.731745,-0.014012,0.57924,0.665295,-0.034373,0.574823,0.620419,-0.042857,0.575097,0.586335,-0.048283,0.613766,0.750583,-0.01673,0.620751,0.705003,-0.041793,0.596727,0.755709,-0.037216,0.597084,0.784125,-0.026329,0.63439,0.778585,-0.022643,0.633992,0.750643,-0.049075,0.607575,0.792131,-0.034528,0.610222,0.811612,-0.017888,0.650585,0.812073,-0.029711,0.641141,0.793585,-0.047707,0.62094,0.820246,-0.039667,0.624057,0.834644,-0.029973,0,0,1
552,'2026/05/06 10:39:50:952',3,0.592436,0.887382,0,0.564867,0.851421,-0.013481,0.560145,0.785599,-0.021477,0.585404,0.736787,-0.02931,0.602564,0.698045,-0.036218,0.584147,0.731745,-0.014012,0.57924,0.665295,-0.034373,0.574823,0.620419,-0.042857,0.575097,0.586335,-0.048283,0.613766,0.750583,-0.01673,0.620751,0.705003,-0.041793,0.596727,0.755709,-0.037216,0.597084,0.784125,-0.026329,0.63439,0.778585,-0.022643,0.633992,0.750643,-0.049075,0.607575,0.792131,-0.034528,0.610222,0.811612,-0.017888,0.650585,0.812073,-0.029711,0.641141,0.793585,-0.047707,0.62094,0.820246,-0.039667,0.624057,0.834644,-0.029973,0,0,1
553,'2026/05/06 10:39:50:993',3,0.593867,0.888074,0,0.56573,0.852803,-0.013738,0.560101,0.786696,-0.021886,0.585757,0.736659,-0.029835,0.60304,0.697068,-0.036893,0.583755,0.733557,-0.01495,0.578484,0.665717,-0.035754,0.57461,0.621016,-0.043846,0.575227,0.587025,-0.048737,0.613787,0.751862,-0.017313,0.621029,0.705814,-0.042089,0.597167,0.757466,-0.036374,0.597694,0.785263,-0.024681,0.634608,0.779259,-0.022967,0.63431,0.752121,-0.050369,0.607434,0.794938,-0.035744,0.609661,0.81428,-0.01873,0.65097,0.811572,-0.02966,0.641277,0.793765,-0.048617,0.620523,0.821113,-0.040906,0.623122,0.8353,-0.031289,0,0,1
554,'2026/05/06 10:39:51:027',3,0.592835,0.888231,0,0.564319,0.852256,-0.014702,0.55992,0.785567,-0.022503,0.585686,0.73521,-0.029829,0.602288,0.694692,-0.036182,0.583483,0.732033,-0.014766,0.578414,0.665219,-0.035389,0.574731,0.620239,-0.043871,0.575436,0.5859,-0.049137,0.613567,0.750528,-0.016353,0.621628,0.705564,-0.041236,0.597764,0.756795,-0.036192,0.597314,0.785099,-0.024805,0.634223,0.778267,-0.021277,0.634186,0.75261,-0.048562,0.607284,0.794525,-0.034605,0.608986,0.813337,-0.017943,0.650444,0.810891,-0.027316,0.640802,0.794042,-0.046226,0.620271,0.821108,-0.038924,0.622994,0.834739,-0.029546,0,0,1
555,'2026/05/06 10:39:51:052',3,0.592217,0.887824,0,0.563912,0.851656,-0.012498,0.558856,0.785887,-0.020981,0.585156,0.736041,-0.029683,0.60173,0.696157,-0.037677,0.583749,0.733344,-0.013268,0.578855,0.666597,-0.033293,0.574946,0.620845,-0.040737,0.575024,0.586536,-0.045056,0.613312,0.752428,-0.016072,0.620479,0.706049,-0.03985,0.59591,0.757916,-0.032911,0.596807,0.785597,-0.020126,0.633508,0.779608,-0.022155,0.632439,0.752174,-0.048202,0.60584,0.794694,-0.033064,0.608828,0.81449,-0.015875,0.649948,0.811281,-0.029214,0.639447,0.79275,-0.046661,0.619503,0.820447,-0.038491,0.623188,0.835548,-0.028788,0,0,1
556,'2026/05/06 10:39:51:083',3,0.591636,0.886126,0,0.563131,0.852704,-0.013819,0.557946,0.785846,-0.021603,0.584549,0.73657,-0.029053,0.60098,0.696766,-0.035716,0.583142,0.732049,-0.015502,0.578222,0.664405,-0.035707,0.574236,0.619869,-0.043763,0.574859,0.585213,-0.048843,0.612396,0.751488,-0.017899,0.619088,0.704343,-0.042176,0.594944,0.756604,-0.036698,0.596028,0.784533,-0.025464,0.63269,0.77985,-0.023448,0.633537,0.749185,-0.050238,0.605955,0.792774,-0.035336,0.607188,0.814013,-0.018386,0.64902,0.813185,-0.030068,0.641845,0.792236,-0.049018,0.619834,0.819278,-0.04104,0.620064,0.835061,-0.031185,0,0,1
557,'2026/05/06 10:39:51:114',3,0.591467,0.885375,0,0.563698,0.851933,-0.012741,0.5584,0.784655,-0.020923,0.58566,0.73505,-0.02908,0.60204,0.695476,-0.036397,0.583238,0.731023,-0.014745,0.578701,0.664813,-0.035605,0.575054,0.62006,-0.043418,0.575546,0.586244,-0.047967,0.613255,0.750722,-0.016934,0.619269,0.705261,-0.040433,0.594327,0.758253,-0.032661,0.59592,0.785154,-0.019606,0.633708,0.778508,-0.022509,0.632773,0.750359,-0.049088,0.605892,0.79333,-0.033863,0.608691,0.812935,-0.016693,0.650456,0.810399,-0.028943,0.639745,0.792175,-0.047696,0.619477,0.819966,-0.040375,0.622961,0.834659,-0.031176,0,0,1
558,'2026/05/06 10:39:51:150',3,0.591829,0.888363,0,0.564948,0.853396,-0.012994,0.559414,0.78619,-0.021237,0.585302,0.735098,-0.029466,0.601041,0.694743,-0.03683,0.583085,0.732507,-0.013896,0.577856,0.667723,-0.034083,0.574755,0.621903,-0.041861,0.575256,0.586699,-0.046712,0.612537,0.751399,-0.016483,0.618627,0.705171,-0.03956,0.595858,0.758205,-0.032402,0.598306,0.784017,-0.020144,0.633171,0.779194,-0.022397,0.633048,0.749949,-0.047549,0.607164,0.792518,-0.03137,0.6101,0.810833,-0.014109,0.649634,0.811691,-0.029481,0.640359,0.793689,-0.04651,0.620474,0.820317,-0.03803,0.623828,0.833328,-0.028409,0,0,1
559,'2026/05/06 10:39:51:179',3,0.592845,0.886054,0,0.564339,0.853296,-0.013533,0.559344,0.784743,-0.020684,0.586852,0.734542,-0.027575,0.60343,0.695214,-0.033526,0.583625,0.732909,-0.014393,0.57806,0.665673,-0.034401,0.573819,0.620877,-0.042052,0.574342,0.586875,-0.046816,0.613443,0.751596,-0.01657,0.619686,0.70677,-0.041337,0.595478,0.758363,-0.035635,0.596375,0.787016,-0.023942,0.633869,0.778887,-0.022014,0.633386,0.752412,-0.049204,0.606247,0.794224,-0.034296,0.608453,0.813768,-0.01715,0.650353,0.810959,-0.028489,0.640757,0.793182,-0.046987,0.619894,0.819872,-0.039113,0.622847,0.83384,-0.029517,0,0,1
560,'2026/05/06 10:39:51:209',3,0.591418,0.888833,0,0.565293,0.852627,-0.014347,0.56011,0.786693,-0.023282,0.5847,0.73647,-0.032123,0.601418,0.696787,-0.039902,0.58341,0.732118,-0.014406,0.578417,0.665956,-0.035132,0.574623,0.620492,-0.043365,0.575632,0.585766,-0.048475,0.612582,0.751059,-0.016898,0.619538,0.706708,-0.040956,0.59581,0.758695,-0.034744,0.5979,0.784621,-0.02291,0.633224,0.77919,-0.022862,0.633126,0.752254,-0.048731,0.606592,0.794036,-0.032965,0.609849,0.812081,-0.015608,0.649132,0.812538,-0.030183,0.641412,0.794499,-0.047502,0.620261,0.820471,-0.038597,0.62245,0.83416,-0.028311,0,0,1
561,'2026/05/06 10:39:51:260',3,0.591233,0.887469,0,0.563833,0.853292,-0.01401,0.558517,0.785357,-0.022271,0.584587,0.735868,-0.030394,0.601393,0.69752,-0.03751,0.583855,0.731518,-0.015346,0.578171,0.663512,-0.036164,0.573866,0.619268,-0.044228,0.574775,0.585286,-0.049242,0.613433,0.750363,-0.017861,0.619259,0.705526,-0.042514,0.594929,0.758118,-0.036533,0.596524,0.784992,-0.024907,0.63395,0.7783,-0.023757,0.63312,0.750459,-0.050511,0.60555,0.7933,-0.034934,0.607877,0.812373,-0.017663,0.650026,0.811177,-0.030867,0.640535,0.793635,-0.049271,0.61922,0.820544,-0.04105,0.621662,0.834359,-0.031206,0,0,1
562,'2026/05/06 10:39:51:286',3,0.591039,0.887151,0,0.563318,0.851913,-0.013505,0.559047,0.78439,-0.021433,0.585321,0.734477,-0.029231,0.601824,0.694224,-0.036158,0.583415,0.73291,-0.014762,0.578639,0.665754,-0.035138,0.574338,0.620327,-0.043157,0.574088,0.585844,-0.048116,0.613661,0.751663,-0.016846,0.619056,0.705533,-0.0409,0.594795,0.758011,-0.034869,0.595974,0.78764,-0.022972,0.634301,0.779506,-0.02215,0.63275,0.751602,-0.048966,0.605907,0.793922,-0.034495,0.608766,0.814058,-0.017689,0.65073,0.8122,-0.028389,0.639909,0.793235,-0.046975,0.620022,0.820303,-0.039302,0.624061,0.835388,-0.029806,0,0,1
563,'2026/05/06 10:39:51:322',3,0.590656,0.887386,0,0.563257,0.853921,-0.013487,0.557769,0.785784,-0.020977,0.585743,0.73617,-0.028236,0.601756,0.696587,-0.034555,0.583031,0.730543,-0.014525,0.577813,0.665006,-0.034713,0.574684,0.620485,-0.042449,0.575612,0.586408,-0.047335,0.612749,0.749949,-0.016875,0.61882,0.705154,-0.040668,0.594265,0.758782,-0.033862,0.595963,0.785054,-0.021692,0.633253,0.778079,-0.022606,0.632929,0.751045,-0.048785,0.605867,0.793746,-0.033113,0.608203,0.812441,-0.015962,0.649329,0.810675,-0.029508,0.639532,0.793267,-0.048306,0.618667,0.820763,-0.040775,0.621603,0.834485,-0.031487,0,0,1
564,'2026/05/06 10:39:51:348',3,0.590656,0.887386,0,0.563257,0.853921,-0.013487,0.557769,0.785784,-0.020977,0.585743,0.73617,-0.028236,0.601756,0.696587,-0.034555,0.583031,0.730543,-0.014525,0.577813,0.665006,-0.034713,0.574684,0.620485,-0.042449,0.575612,0.586408,-0.047335,0.612749,0.749949,-0.016875,0.61882,0.705154,-0.040668,0.594265,0.758782,-0.033862,0.595963,0.785054,-0.021692,0.633253,0.778079,-0.022606,0.632929,0.751045,-0.048785,0.605867,0.793746,-0.033113,0.608203,0.812441,-0.015962,0.649329,0.810675,-0.029508,0.639532,0.793267,-0.048306,0.618667,0.820763,-0.040775,0.621603,0.834485,-0.031487,0,0,1
565,'2026/05/06 10:39:51:379',3,0.593376,0.888753,0,0.564701,0.855578,-0.014667,0.558775,0.786557,-0.02254,0.585304,0.735481,-0.030027,0.602211,0.696222,-0.036452,0.583529,0.733064,-0.014849,0.578305,0.664654,-0.034586,0.574318,0.620188,-0.042012,0.574923,0.585915,-0.046732,0.613236,0.751273,-0.016946,0.6198,0.706958,-0.042037,0.596721,0.758765,-0.037001,0.597158,0.786513,-0.02579,0.633714,0.778391,-0.022335,0.633298,0.752612,-0.049658,0.60693,0.795617,-0.035335,0.608814,0.814725,-0.018649,0.650271,0.810668,-0.028913,0.640403,0.79418,-0.047604,0.619919,0.822033,-0.040151,0.622612,0.835613,-0.030851,0,0,1
566,'2026/05/06 10:39:51:412',3,0.592008,0.891612,0,0.564409,0.855845,-0.013343,0.559269,0.787264,-0.021003,0.584606,0.735546,-0.028805,0.600742,0.694797,-0.035833,0.582386,0.735164,-0.012145,0.576797,0.668021,-0.03065,0.573588,0.622029,-0.037177,0.574416,0.586651,-0.041453,0.611918,0.753026,-0.015181,0.61845,0.706011,-0.039271,0.596123,0.757501,-0.033933,0.597235,0.785002,-0.02242,0.632755,0.780179,-0.021426,0.631287,0.751335,-0.047126,0.606377,0.794329,-0.032474,0.609705,0.813314,-0.015894,0.649157,0.812383,-0.028907,0.63816,0.793641,-0.046387,0.619172,0.821408,-0.038637,0.623583,0.835457,-0.029307,0,0,1
567,'2026/05/06 10:39:51:443',3,0.591696,0.888954,0,0.564574,0.855827,-0.012518,0.558385,0.787879,-0.020639,0.584818,0.73637,-0.02876,0.601034,0.69654,-0.036142,0.582273,0.733088,-0.014258,0.576981,0.666287,-0.034639,0.573866,0.620173,-0.042691,0.574343,0.584929,-0.047676,0.611965,0.751738,-0.016808,0.618304,0.706385,-0.040138,0.595002,0.759411,-0.032932,0.596744,0.785575,-0.020496,0.632381,0.779085,-0.022624,0.632736,0.750333,-0.048251,0.606534,0.793186,-0.032645,0.609213,0.812111,-0.015619,0.649124,0.811129,-0.029445,0.639193,0.794439,-0.046922,0.619304,0.821721,-0.038895,0.622943,0.835081,-0.029508,0,0,1
568,'2026/05/06 10:39:51:473',3,0.590396,0.887279,0,0.56305,0.854088,-0.01328,0.55763,0.785836,-0.021919,0.584456,0.734603,-0.030586,0.60125,0.694694,-0.038532,0.583154,0.73221,-0.014345,0.577224,0.665887,-0.03491,0.573917,0.619315,-0.042409,0.574433,0.584864,-0.046579,0.612418,0.751413,-0.016553,0.619194,0.706935,-0.039976,0.594543,0.759555,-0.031883,0.595875,0.786416,-0.018314,0.632457,0.779592,-0.02223,0.632808,0.752144,-0.048889,0.60548,0.794844,-0.033534,0.608156,0.814374,-0.015968,0.649247,0.81228,-0.028832,0.639978,0.79515,-0.046499,0.619426,0.821936,-0.038344,0.622625,0.835903,-0.028605,0,0,1
569,'2026/05/06 10:39:51:504',3,0.591088,0.88832,0,0.564089,0.855422,-0.012564,0.558525,0.786058,-0.020211,0.58524,0.734365,-0.028066,0.601075,0.69424,-0.035021,0.583138,0.733887,-0.013051,0.576775,0.666945,-0.033465,0.572869,0.621358,-0.040855,0.573597,0.586045,-0.045109,0.612243,0.752268,-0.015833,0.61807,0.707579,-0.039821,0.594472,0.759954,-0.032646,0.59642,0.786168,-0.019866,0.632351,0.779305,-0.022023,0.631957,0.752402,-0.049107,0.605434,0.795029,-0.033669,0.608543,0.813003,-0.016134,0.64883,0.811016,-0.029128,0.639654,0.79373,-0.046784,0.619439,0.820988,-0.03815,0.623003,0.834336,-0.028135,0,0,1
570,'2026/05/06 10:39:51:536',3,0.590342,0.891038,0,0.563331,0.856203,-0.01283,0.557683,0.787777,-0.021242,0.584053,0.735492,-0.03003,0.600123,0.694749,-0.038249,0.582014,0.735557,-0.011944,0.576544,0.669646,-0.031603,0.573373,0.622168,-0.038328,0.574362,0.586797,-0.042029,0.611247,0.754374,-0.014645,0.617551,0.706122,-0.038227,0.593737,0.758378,-0.030758,0.595391,0.785715,-0.017278,0.63178,0.781575,-0.020802,0.63056,0.75152,-0.047183,0.604443,0.794766,-0.032138,0.607624,0.815105,-0.01458,0.64886,0.813258,-0.02792,0.639147,0.792773,-0.044774,0.619071,0.820456,-0.036311,0.622458,0.835617,-0.026303,0,0,1
571,'2026/05/06 10:39:51:567',3,0.590318,0.890468,0,0.563159,0.854208,-0.013229,0.55818,0.787011,-0.021539,0.584384,0.735457,-0.030014,0.600474,0.694565,-0.037757,0.582346,0.73275,-0.012533,0.576818,0.667634,-0.032235,0.573588,0.621156,-0.039527,0.574103,0.586202,-0.043847,0.6116,0.751449,-0.015131,0.618245,0.706252,-0.038481,0.594782,0.758455,-0.031628,0.596144,0.78478,-0.019068,0.632281,0.779331,-0.021127,0.631249,0.751547,-0.04665,0.605235,0.793978,-0.031166,0.608101,0.812718,-0.013853,0.648596,0.812165,-0.028303,0.638815,0.793694,-0.044798,0.619119,0.820506,-0.036161,0.622719,0.834228,-0.026246,0,0,1
572,'2026/05/06 10:39:51:599',3,0.590459,0.8883,0,0.563058,0.853718,-0.012894,0.557354,0.785895,-0.021083,0.58434,0.735473,-0.029246,0.600912,0.696344,-0.036456,0.582341,0.732515,-0.013921,0.5767,0.667179,-0.034207,0.573339,0.621672,-0.042159,0.573778,0.586461,-0.047261,0.612013,0.751348,-0.016701,0.61792,0.705772,-0.040876,0.594659,0.759056,-0.034475,0.596391,0.785891,-0.022607,0.632317,0.778674,-0.022736,0.631563,0.750681,-0.048702,0.605143,0.793996,-0.032555,0.607742,0.812793,-0.015184,0.648556,0.810843,-0.029929,0.637486,0.793711,-0.04751,0.617606,0.82178,-0.039133,0.621727,0.834943,-0.029527,0,0,1
573,'2026/05/06 10:39:51:634',3,0.589354,0.887833,0,0.563461,0.852815,-0.01177,0.558508,0.787159,-0.020006,0.58409,0.73753,-0.028499,0.600929,0.698703,-0.036146,0.582949,0.732479,-0.01357,0.577105,0.666955,-0.03478,0.57308,0.620464,-0.04354,0.573232,0.586023,-0.048753,0.612323,0.751641,-0.01631,0.617532,0.706823,-0.03886,0.593562,0.759386,-0.03109,0.596044,0.78613,-0.018446,0.632623,0.780013,-0.022378,0.632456,0.750788,-0.047634,0.605408,0.793196,-0.031617,0.608494,0.813079,-0.014263,0.648984,0.813229,-0.029401,0.639238,0.796563,-0.046571,0.618326,0.822596,-0.038091,0.621507,0.836423,-0.028276,0,0,1
574,'2026/05/06 10:39:51:663',3,0.590228,0.887059,0,0.562448,0.85324,-0.013369,0.556745,0.785139,-0.021116,0.582804,0.735358,-0.028764,0.599146,0.696184,-0.035413,0.581456,0.730809,-0.014669,0.576195,0.663733,-0.035792,0.57187,0.619277,-0.044163,0.572509,0.585254,-0.049288,0.611142,0.750234,-0.017142,0.617509,0.705044,-0.041841,0.59276,0.758248,-0.035716,0.59468,0.785605,-0.023866,0.631688,0.778515,-0.022963,0.632088,0.750201,-0.049983,0.604398,0.792977,-0.03438,0.607058,0.812657,-0.016971,0.64803,0.811695,-0.029863,0.638837,0.793804,-0.048635,0.617579,0.820737,-0.040549,0.620327,0.834979,-0.030741,0,0,1
575,'2026/05/06 10:39:51:712',3,0.590168,0.887365,0,0.562867,0.853112,-0.014028,0.557696,0.785717,-0.022241,0.583113,0.73599,-0.030311,0.599584,0.696635,-0.03739,0.581933,0.732851,-0.014486,0.577012,0.665373,-0.034366,0.572869,0.61958,-0.04206,0.573101,0.584973,-0.047073,0.612,0.751204,-0.016723,0.617921,0.705292,-0.041054,0.593384,0.756892,-0.035293,0.594579,0.785178,-0.023659,0.63281,0.778668,-0.022248,0.631068,0.750579,-0.048052,0.60411,0.792862,-0.032827,0.607212,0.81228,-0.016023,0.649308,0.811194,-0.029042,0.636555,0.794321,-0.046969,0.616914,0.82114,-0.039482,0.62213,0.834783,-0.030385,0,0,1
576,'2026/05/06 10:39:51:745',3,0.590168,0.887365,0,0.562867,0.853112,-0.014028,0.557696,0.785717,-0.022241,0.583113,0.73599,-0.030311,0.599584,0.696635,-0.03739,0.581933,0.732851,-0.014486,0.577012,0.665373,-0.034366,0.572869,0.61958,-0.04206,0.573101,0.584973,-0.047073,0.612,0.751204,-0.016723,0.617921,0.705292,-0.041054,0.593384,0.756892,-0.035293,0.594579,0.785178,-0.023659,0.63281,0.778668,-0.022248,0.631068,0.750579,-0.048052,0.60411,0.792862,-0.032827,0.607212,0.81228,-0.016023,0.649308,0.811194,-0.029042,0.636555,0.794321,-0.046969,0.616914,0.82114,-0.039482,0.62213,0.834783,-0.030385,0,0,1
577,'2026/05/06 10:39:51:780',3,0.590819,0.888528,0,0.562394,0.853642,-0.014637,0.555996,0.785915,-0.023798,0.583001,0.735587,-0.032953,0.601249,0.69685,-0.040984,0.581643,0.730736,-0.014946,0.576245,0.663747,-0.035729,0.571158,0.620649,-0.043024,0.57167,0.586706,-0.047526,0.612086,0.749351,-0.01735,0.61588,0.706057,-0.04201,0.592308,0.760971,-0.035665,0.59605,0.787576,-0.023786,0.632966,0.777117,-0.023278,0.630239,0.751286,-0.050242,0.603038,0.795947,-0.034782,0.60699,0.81462,-0.017675,0.648897,0.809905,-0.030495,0.635952,0.793852,-0.049202,0.615324,0.822359,-0.041684,0.619692,0.836263,-0.032362,0,0,1
578,'2026/05/06 10:39:51:820',3,0.589712,0.888756,0,0.562382,0.854728,-0.013398,0.556389,0.787739,-0.022101,0.582871,0.737266,-0.030835,0.59887,0.696835,-0.038687,0.58075,0.731988,-0.014922,0.575302,0.665494,-0.035366,0.571693,0.619482,-0.043192,0.572515,0.58431,-0.048147,0.610735,0.750876,-0.017817,0.616318,0.70544,-0.042001,0.592556,0.758565,-0.035565,0.59498,0.78489,-0.023676,0.631443,0.778679,-0.023973,0.630744,0.750296,-0.049877,0.603759,0.793286,-0.033721,0.606399,0.812358,-0.016349,0.647703,0.811177,-0.031349,0.637711,0.793133,-0.048921,0.616624,0.820517,-0.040365,0.619265,0.834422,-0.03053,0,0,1
579,'2026/05/06 10:39:51:857',3,0.589902,0.888553,0,0.562661,0.8534,-0.013951,0.55656,0.786894,-0.022541,0.582212,0.736746,-0.031103,0.598395,0.696716,-0.038687,0.580887,0.732411,-0.014806,0.574879,0.665418,-0.034949,0.571427,0.620041,-0.042431,0.572322,0.585261,-0.047071,0.610461,0.750717,-0.017597,0.616349,0.706683,-0.041663,0.592804,0.759718,-0.035244,0.594661,0.785698,-0.023328,0.631373,0.778254,-0.023721,0.631067,0.751463,-0.049818,0.60472,0.793967,-0.033957,0.607491,0.812025,-0.016649,0.647622,0.810922,-0.031128,0.63885,0.793874,-0.048751,0.618119,0.820436,-0.040055,0.620511,0.833809,-0.030034,0,0,1
580,'2026/05/06 10:39:51:894',3,0.589015,0.887765,0,0.562368,0.853471,-0.013847,0.556441,0.785996,-0.022276,0.582034,0.736218,-0.030608,0.598891,0.697086,-0.037971,0.581366,0.731586,-0.014916,0.575179,0.665763,-0.035344,0.570905,0.621602,-0.043247,0.57144,0.587472,-0.048369,0.610993,0.74986,-0.017834,0.617061,0.705017,-0.042467,0.593067,0.757561,-0.037053,0.594566,0.784231,-0.025929,0.63194,0.777632,-0.024018,0.63069,0.750736,-0.050499,0.603618,0.793643,-0.035093,0.606249,0.811981,-0.018157,0.647903,0.810678,-0.031455,0.63725,0.793227,-0.050001,0.6166,0.820684,-0.042044,0.620033,0.834245,-0.032458,0,0,1
581,'2026/05/06 10:39:51:924',3,0.589988,0.889418,0,0.561463,0.854567,-0.012941,0.555334,0.787347,-0.020716,0.581942,0.737561,-0.028442,0.598041,0.698177,-0.035322,0.580409,0.732659,-0.014571,0.574946,0.665929,-0.034997,0.571419,0.620612,-0.043113,0.572178,0.585798,-0.048298,0.610152,0.751321,-0.017246,0.615452,0.704993,-0.040742,0.592047,0.757788,-0.034107,0.59446,0.784108,-0.022344,0.630844,0.778894,-0.0232,0.630393,0.74939,-0.048802,0.603997,0.791927,-0.032908,0.606749,0.811243,-0.01585,0.647066,0.811431,-0.030322,0.638483,0.792348,-0.048468,0.617576,0.819099,-0.040377,0.619814,0.833636,-0.030822,0,0,1
582,'2026/05/06 10:39:51:958',3,0.590842,0.889116,0,0.561971,0.852242,-0.016446,0.555754,0.785355,-0.024978,0.581179,0.735127,-0.03307,0.598181,0.695157,-0.039907,0.580403,0.732322,-0.015123,0.57474,0.663244,-0.035315,0.571008,0.619938,-0.042602,0.572338,0.586463,-0.046955,0.609989,0.750841,-0.016968,0.616699,0.707722,-0.042939,0.592802,0.760122,-0.03827,0.593662,0.786451,-0.026941,0.631033,0.778395,-0.022384,0.630192,0.754848,-0.050684,0.603244,0.797424,-0.036662,0.605641,0.814476,-0.019715,0.64708,0.810825,-0.029211,0.637804,0.794874,-0.04846,0.616503,0.821733,-0.040858,0.618505,0.834497,-0.031055,0,0,1
583,'2026/05/06 10:39:51:992',3,0.589586,0.88825,0,0.561636,0.85643,-0.013331,0.554941,0.78857,-0.02108,0.581505,0.737104,-0.028685,0.595936,0.696281,-0.035435,0.579624,0.733604,-0.01513,0.574397,0.666301,-0.035196,0.571103,0.62038,-0.042624,0.572208,0.584948,-0.047116,0.609429,0.751784,-0.017604,0.615214,0.705479,-0.040813,0.591428,0.758319,-0.033292,0.593381,0.784085,-0.020517,0.630138,0.779229,-0.023388,0.629501,0.750576,-0.049077,0.602999,0.793926,-0.033052,0.605443,0.812717,-0.015522,0.646996,0.811168,-0.030307,0.638414,0.793428,-0.047598,0.617563,0.820248,-0.038953,0.619683,0.833516,-0.028987,0,0,1
584,'2026/05/06 10:39:52:033',3,0.589485,0.886513,0,0.561061,0.854154,-0.01289,0.554556,0.785593,-0.02069,0.581445,0.734638,-0.028386,0.596877,0.694735,-0.035001,0.580061,0.73093,-0.014914,0.574486,0.664454,-0.035623,0.570269,0.620449,-0.04331,0.571099,0.586088,-0.048016,0.609857,0.749642,-0.01735,0.614682,0.704185,-0.040432,0.589549,0.7581,-0.032409,0.592803,0.783343,-0.019691,0.63027,0.777282,-0.023209,0.63042,0.748725,-0.048843,0.602309,0.791669,-0.032168,0.605445,0.81019,-0.014636,0.646918,0.80935,-0.03017,0.637286,0.792963,-0.047984,0.616052,0.819376,-0.039813,0.619497,0.832358,-0.030339,0,0,1
585,'2026/05/06 10:39:52:066',3,0.589313,0.887787,0,0.561176,0.854539,-0.014786,0.554704,0.786525,-0.023291,0.580963,0.736435,-0.031679,0.597836,0.696877,-0.039072,0.580138,0.731936,-0.01527,0.574318,0.663509,-0.036145,0.569925,0.619376,-0.044024,0.570877,0.585202,-0.04901,0.610172,0.750198,-0.01776,0.615457,0.705347,-0.043403,0.591056,0.759565,-0.037833,0.593085,0.78691,-0.02616,0.631221,0.777906,-0.023734,0.629522,0.751243,-0.051507,0.602273,0.79545,-0.036332,0.605298,0.814667,-0.01908,0.647556,0.810612,-0.030991,0.637078,0.792647,-0.050615,0.615626,0.820955,-0.042983,0.618389,0.835562,-0.033323,0,0,1
586,'2026/05/06 10:39:52:101',3,0.588352,0.887262,0,0.562066,0.853113,-0.013573,0.556478,0.786258,-0.021696,0.582688,0.735462,-0.029617,0.597211,0.694308,-0.036461,0.579957,0.729033,-0.014916,0.574457,0.664549,-0.035856,0.570776,0.619376,-0.044325,0.571658,0.584489,-0.049556,0.609689,0.748033,-0.017485,0.615107,0.705013,-0.041151,0.59144,0.758276,-0.034138,0.593914,0.782845,-0.02205,0.630283,0.776238,-0.023531,0.62996,0.750206,-0.048866,0.603108,0.792052,-0.032263,0.605988,0.808659,-0.014851,0.646384,0.808955,-0.030895,0.636992,0.793874,-0.047362,0.616034,0.820224,-0.038218,0.619279,0.831482,-0.028261,0,0,1
587,'2026/05/06 10:39:52:132',3,0.589183,0.886443,0,0.560543,0.853619,-0.012925,0.554743,0.784983,-0.020301,0.581499,0.734076,-0.027629,0.596477,0.694074,-0.034129,0.579856,0.730934,-0.014581,0.574077,0.664665,-0.034663,0.570102,0.620005,-0.041966,0.571215,0.585252,-0.046516,0.60971,0.749467,-0.017367,0.615496,0.703727,-0.04075,0.590949,0.756722,-0.033446,0.593699,0.782354,-0.020982,0.630307,0.777311,-0.023449,0.629953,0.748693,-0.049381,0.60229,0.791819,-0.03336,0.605368,0.810666,-0.016034,0.646735,0.809868,-0.030648,0.636828,0.793721,-0.0489,0.615472,0.820651,-0.041,0.618479,0.834168,-0.031532,0,0,1
588,'2026/05/06 10:39:52:169',3,0.589183,0.886443,0,0.560543,0.853619,-0.012925,0.554743,0.784983,-0.020301,0.581499,0.734076,-0.027629,0.596477,0.694074,-0.034129,0.579856,0.730934,-0.014581,0.574077,0.664665,-0.034663,0.570102,0.620005,-0.041966,0.571215,0.585252,-0.046516,0.60971,0.749467,-0.017367,0.615496,0.703727,-0.04075,0.590949,0.756722,-0.033446,0.593699,0.782354,-0.020982,0.630307,0.777311,-0.023449,0.629953,0.748693,-0.049381,0.60229,0.791819,-0.03336,0.605368,0.810666,-0.016034,0.646735,0.809868,-0.030648,0.636828,0.793721,-0.0489,0.615472,0.820651,-0.041,0.618479,0.834168,-0.031532,0,0,1
589,'2026/05/06 10:39:52:205',3,0.588611,0.885057,0,0.561178,0.853194,-0.012896,0.554809,0.785904,-0.019986,0.581698,0.735566,-0.026801,0.596123,0.695152,-0.032689,0.579139,0.730737,-0.015353,0.573488,0.664611,-0.035488,0.570385,0.619096,-0.043008,0.570979,0.584668,-0.047578,0.609028,0.74913,-0.017738,0.613569,0.702927,-0.041073,0.590091,0.756772,-0.03325,0.591668,0.78337,-0.020293,0.630066,0.776827,-0.023414,0.628492,0.74893,-0.049459,0.602737,0.792876,-0.033016,0.604534,0.812523,-0.015171,0.647266,0.809259,-0.030155,0.638883,0.790637,-0.048605,0.61796,0.818141,-0.040253,0.619196,0.83207,-0.030355,0,0,1
590,'2026/05/06 10:39:52:236',3,0.590618,0.888751,0,0.562217,0.855038,-0.013715,0.55592,0.786996,-0.02152,0.582765,0.73642,-0.029173,0.598747,0.69627,-0.035755,0.581439,0.731425,-0.014048,0.575259,0.665311,-0.034188,0.571291,0.620581,-0.041933,0.57172,0.585819,-0.046907,0.611214,0.749016,-0.016465,0.616019,0.70473,-0.040555,0.592485,0.758504,-0.034189,0.594291,0.785159,-0.022249,0.631869,0.775634,-0.022304,0.629739,0.749464,-0.048188,0.603453,0.793386,-0.032656,0.606687,0.811617,-0.015684,0.648473,0.807321,-0.029438,0.636512,0.791662,-0.047266,0.616525,0.819551,-0.039646,0.621114,0.832208,-0.030504,0,0,1
591,'2026/05/06 10:39:52:268',3,0.589353,0.887579,0,0.561909,0.853298,-0.012895,0.55628,0.785587,-0.021273,0.582651,0.734883,-0.029793,0.599219,0.695296,-0.037361,0.581793,0.73239,-0.014018,0.576193,0.665776,-0.034799,0.571803,0.620505,-0.042469,0.57272,0.585428,-0.047063,0.611115,0.750878,-0.016826,0.616671,0.705001,-0.040212,0.591725,0.758492,-0.032574,0.595173,0.784832,-0.019817,0.63134,0.778652,-0.023093,0.631274,0.749914,-0.049052,0.603197,0.792947,-0.032855,0.607018,0.812397,-0.015276,0.647724,0.810996,-0.030466,0.638736,0.793513,-0.04779,0.617139,0.819393,-0.039201,0.620312,0.833283,-0.029318,0,0,1
592,'2026/05/06 10:39:52:315',3,0.588723,0.887228,0,0.561766,0.851882,-0.014433,0.556601,0.786099,-0.022938,0.581621,0.737067,-0.031191,0.598222,0.696839,-0.038503,0.582044,0.731646,-0.015136,0.576612,0.665007,-0.035373,0.572706,0.619393,-0.043395,0.573305,0.585207,-0.048547,0.611409,0.750101,-0.01757,0.617677,0.704757,-0.042409,0.593323,0.756747,-0.037227,0.594208,0.785487,-0.025889,0.632182,0.778029,-0.023289,0.630756,0.750811,-0.049804,0.603926,0.79362,-0.035046,0.60703,0.813306,-0.018271,0.648659,0.811412,-0.030271,0.638246,0.793433,-0.048656,0.617597,0.820183,-0.04091,0.621286,0.834241,-0.031388,0,0,1
593,'2026/05/06 10:39:52:348',3,0.590255,0.891061,0,0.562591,0.854749,-0.013913,0.557203,0.786668,-0.02215,0.58286,0.73552,-0.030496,0.599652,0.695562,-0.037774,0.582419,0.73265,-0.012801,0.576794,0.665522,-0.0327,0.572742,0.619745,-0.03986,0.573677,0.585353,-0.044336,0.612192,0.750802,-0.015566,0.618299,0.706118,-0.040497,0.594296,0.758695,-0.034603,0.595999,0.786371,-0.022535,0.632994,0.778077,-0.021829,0.630787,0.752121,-0.048323,0.604058,0.795322,-0.032935,0.607377,0.814201,-0.015644,0.649338,0.810443,-0.029435,0.637186,0.79376,-0.047258,0.616608,0.821144,-0.039345,0.620652,0.834504,-0.029781,0,0,1
594,'2026/05/06 10:39:52:378',3,0.588948,0.889213,0,0.562916,0.853684,-0.014664,0.556891,0.786281,-0.023951,0.581912,0.736094,-0.033233,0.599172,0.697311,-0.041322,0.582265,0.731687,-0.014324,0.576543,0.665874,-0.034951,0.572952,0.620937,-0.042415,0.574329,0.586331,-0.047073,0.611552,0.749925,-0.017094,0.617657,0.706079,-0.042315,0.593499,0.759301,-0.036299,0.59584,0.785506,-0.024262,0.632147,0.777566,-0.023401,0.631033,0.752518,-0.050025,0.604142,0.795089,-0.03428,0.60781,0.812589,-0.016868,0.648312,0.810573,-0.031142,0.637882,0.795113,-0.048749,0.617186,0.821619,-0.040453,0.620952,0.834033,-0.030695,0,0,1
595,'2026/05/06 10:39:52:415',3,0.589908,0.886507,0,0.562326,0.854199,-0.013239,0.556401,0.786461,-0.020836,0.584112,0.73684,-0.028158,0.600208,0.698023,-0.03434,0.581896,0.730663,-0.01545,0.576312,0.664289,-0.036443,0.572448,0.619483,-0.044578,0.573427,0.584541,-0.049706,0.611874,0.749249,-0.017506,0.61667,0.705348,-0.040575,0.593021,0.758962,-0.032668,0.596056,0.784116,-0.020233,0.632102,0.777144,-0.023027,0.631293,0.750663,-0.048893,0.60419,0.793478,-0.032484,0.607226,0.811715,-0.015151,0.648091,0.809615,-0.029706,0.638297,0.794437,-0.047905,0.616927,0.821278,-0.040062,0.619776,0.833997,-0.030846,0,0,1
596,'2026/05/06 10:39:52:441',3,0.589902,0.886979,0,0.562158,0.850386,-0.01522,0.55615,0.784363,-0.024798,0.58157,0.735193,-0.034198,0.599717,0.696319,-0.042488,0.581648,0.730787,-0.016067,0.576564,0.664334,-0.0376,0.571797,0.620255,-0.045827,0.572154,0.586124,-0.050838,0.611627,0.749711,-0.018043,0.616884,0.706357,-0.042442,0.592267,0.760239,-0.03592,0.59518,0.787268,-0.023893,0.632419,0.778139,-0.023593,0.631006,0.752608,-0.050279,0.603322,0.795763,-0.034698,0.607221,0.814143,-0.017413,0.648137,0.811411,-0.030472,0.637581,0.795256,-0.048972,0.61678,0.822004,-0.041049,0.620834,0.8356,-0.031374,0,0,1
597,'2026/05/06 10:39:52:472',3,0.588878,0.887632,0,0.560861,0.851155,-0.015988,0.555818,0.783925,-0.023869,0.581163,0.734432,-0.031306,0.59855,0.695071,-0.037545,0.580492,0.731264,-0.014954,0.575417,0.663491,-0.034509,0.57127,0.620936,-0.041684,0.572473,0.587278,-0.046459,0.610281,0.74958,-0.016947,0.616395,0.704496,-0.042786,0.592101,0.757497,-0.038817,0.592925,0.785906,-0.028253,0.631759,0.777397,-0.022296,0.629713,0.751659,-0.049995,0.602392,0.7954,-0.035746,0.604819,0.814027,-0.019005,0.647943,0.810378,-0.029088,0.637679,0.792649,-0.048739,0.616326,0.820367,-0.041508,0.619227,0.834291,-0.032044,0,0,1
598,'2026/05/06 10:39:52:517',3,0.588413,0.884877,0,0.560909,0.850823,-0.013644,0.555667,0.783971,-0.02172,0.581404,0.735363,-0.029701,0.598198,0.696527,-0.036767,0.581416,0.730916,-0.015278,0.575383,0.662472,-0.03636,0.570498,0.618207,-0.04495,0.571,0.58434,-0.050382,0.611245,0.749561,-0.018118,0.615945,0.704593,-0.043656,0.591407,0.757216,-0.03871,0.593095,0.785756,-0.027617,0.631984,0.777616,-0.024224,0.629485,0.749615,-0.051393,0.602079,0.792663,-0.036523,0.60532,0.812958,-0.019634,0.648145,0.810789,-0.031482,0.636622,0.792756,-0.050545,0.615433,0.819681,-0.042833,0.618775,0.834541,-0.033186,0,0,1
599,'2026/05/06 10:39:52:564',3,0.5886,0.885569,0,0.56092,0.853179,-0.01368,0.555017,0.785622,-0.021245,0.581419,0.735809,-0.028577,0.597695,0.696478,-0.034927,0.580485,0.729403,-0.014917,0.574938,0.664037,-0.035196,0.570912,0.619684,-0.043403,0.571309,0.585992,-0.048715,0.610249,0.747946,-0.017447,0.615663,0.704265,-0.041117,0.590996,0.756697,-0.034928,0.592408,0.783482,-0.023405,0.630811,0.77618,-0.023319,0.629838,0.749216,-0.049195,0.602472,0.79169,-0.033789,0.605019,0.81075,-0.016964,0.646744,0.809584,-0.030406,0.636341,0.79375,-0.048662,0.615294,0.819992,-0.040966,0.618514,0.833226,-0.031678,0,0,1
600,'2026/05/06 10:39:52:604',3,0.5886,0.885569,0,0.56092,0.853179,-0.01368,0.555017,0.785622,-0.021245,0.581419,0.735809,-0.028577,0.597695,0.696478,-0.034927,0.580485,0.729403,-0.014917,0.574938,0.664037,-0.035196,0.570912,0.619684,-0.043403,0.571309,0.585992,-0.048715,0.610249,0.747946,-0.017447,0.615663,0.704265,-0.041117,0.590996,0.756697,-0.034928,0.592408,0.783482,-0.023405,0.630811,0.77618,-0.023319,0.629838,0.749216,-0.049195,0.602472,0.79169,-0.033789,0.605019,0.81075,-0.016964,0.646744,0.809584,-0.030406,0.636341,0.79375,-0.048662,0.615294,0.819992,-0.040966,0.618514,0.833226,-0.031678,0,0,1
601,'2026/05/06 10:39:52:657',3,0.589793,0.88686,0,0.561341,0.854113,-0.014102,0.554969,0.78482,-0.021938,0.58081,0.733839,-0.029571,0.598032,0.6951,-0.036301,0.580072,0.731849,-0.015166,0.574763,0.66348,-0.035029,0.570492,0.619544,-0.042645,0.571013,0.58536,-0.047783,0.61024,0.750206,-0.017873,0.615015,0.704758,-0.042766,0.591676,0.758285,-0.037759,0.593459,0.786443,-0.026965,0.63119,0.777828,-0.023778,0.629743,0.750151,-0.050817,0.603147,0.794406,-0.035921,0.605399,0.814562,-0.019248,0.647552,0.810571,-0.030876,0.637363,0.792421,-0.050467,0.61573,0.820824,-0.043089,0.617407,0.83569,-0.033788,0,0,1
602,'2026/05/06 10:39:52:693',3,0.589619,0.886021,0,0.561715,0.85303,-0.012646,0.556347,0.783869,-0.020071,0.583453,0.731878,-0.027605,0.59915,0.691574,-0.034471,0.581759,0.731366,-0.012539,0.575541,0.666947,-0.032267,0.571783,0.621241,-0.039589,0.571964,0.586555,-0.043951,0.611091,0.749486,-0.015034,0.616187,0.704578,-0.037691,0.592586,0.756766,-0.030065,0.594698,0.782882,-0.017243,0.630978,0.776579,-0.020964,0.630343,0.748282,-0.046858,0.603566,0.790864,-0.031529,0.606394,0.809712,-0.014413,0.647212,0.808431,-0.027889,0.636374,0.792466,-0.045365,0.616141,0.81948,-0.037504,0.620149,0.832442,-0.028164,0,0,1
603,'2026/05/06 10:39:52:726',3,0.589608,0.88598,0,0.561668,0.85376,-0.013157,0.555749,0.785383,-0.021703,0.582513,0.733963,-0.030443,0.597648,0.693205,-0.038362,0.58115,0.732544,-0.014658,0.575427,0.665775,-0.035107,0.57116,0.62053,-0.042059,0.572111,0.585239,-0.046094,0.611007,0.750492,-0.017541,0.616205,0.703961,-0.040996,0.591342,0.757039,-0.03314,0.59463,0.782256,-0.02002,0.631547,0.778052,-0.02381,0.6298,0.748962,-0.049491,0.60191,0.792567,-0.033087,0.605697,0.811523,-0.015362,0.648044,0.810082,-0.031237,0.636551,0.792597,-0.048086,0.615737,0.819268,-0.039409,0.619888,0.832996,-0.029487,0,0,1
604,'2026/05/06 10:39:52:754',3,0.590969,0.881696,0,0.5612,0.851981,-0.011651,0.555436,0.782078,-0.018438,0.584328,0.731036,-0.02493,0.60029,0.691787,-0.030517,0.580778,0.729439,-0.014929,0.575294,0.662289,-0.035835,0.571609,0.617545,-0.044189,0.572028,0.583065,-0.049167,0.610848,0.748205,-0.016751,0.615591,0.702961,-0.039196,0.591923,0.756771,-0.030712,0.594224,0.783728,-0.017579,0.630424,0.77534,-0.021857,0.630204,0.746478,-0.04806,0.603126,0.790349,-0.032606,0.60533,0.811436,-0.015493,0.647437,0.806376,-0.027601,0.63632,0.789567,-0.046185,0.615644,0.817883,-0.038982,0.619,0.8325,-0.030064,0,0,1
605,'2026/05/06 10:39:52:785',3,0.590217,0.885081,0,0.560907,0.852926,-0.012744,0.555018,0.78389,-0.019497,0.582148,0.733172,-0.026266,0.597575,0.69322,-0.032478,0.57997,0.733239,-0.013351,0.574555,0.665312,-0.032198,0.570825,0.620266,-0.038713,0.571794,0.585381,-0.042736,0.609405,0.751393,-0.016412,0.615805,0.704414,-0.040608,0.591811,0.755159,-0.034949,0.593213,0.782155,-0.023153,0.629966,0.778412,-0.022557,0.62872,0.749919,-0.049343,0.601742,0.792852,-0.034932,0.604189,0.812513,-0.018117,0.646657,0.809641,-0.029696,0.636089,0.791271,-0.048203,0.615435,0.818925,-0.040584,0.618479,0.833361,-0.031062,0,0,1
606,'2026/05/06 10:39:52:816',3,0.589606,0.883257,0,0.561144,0.852216,-0.012927,0.554447,0.784353,-0.020147,0.582581,0.734347,-0.027089,0.597543,0.695244,-0.033112,0.579231,0.730987,-0.015746,0.57426,0.664401,-0.036478,0.571128,0.619318,-0.044317,0.572123,0.584998,-0.048842,0.609339,0.750168,-0.018025,0.615144,0.705099,-0.041724,0.590101,0.757045,-0.033966,0.591279,0.782492,-0.021056,0.629779,0.777842,-0.0236,0.630011,0.750447,-0.050385,0.602518,0.791987,-0.034291,0.603828,0.810748,-0.016422,0.646296,0.809602,-0.030123,0.639302,0.791206,-0.048186,0.617336,0.817586,-0.039352,0.617753,0.831438,-0.029122,0,0,1
607,'2026/05/06 10:39:52:847',3,0.588837,0.883945,0,0.560813,0.849666,-0.013689,0.555644,0.783069,-0.0217,0.580893,0.73363,-0.029666,0.597432,0.694054,-0.036741,0.580672,0.729928,-0.014286,0.575081,0.66256,-0.034797,0.569817,0.618987,-0.042947,0.569667,0.584851,-0.048212,0.610683,0.747585,-0.016958,0.61551,0.701931,-0.042161,0.592158,0.75532,-0.037473,0.5938,0.783848,-0.026575,0.63185,0.774605,-0.022878,0.628677,0.746926,-0.049795,0.602123,0.791273,-0.035306,0.605157,0.811006,-0.018732,0.648239,0.80675,-0.029977,0.635632,0.78865,-0.049046,0.615002,0.817313,-0.041791,0.618738,0.83192,-0.032546,0,0,1
608,'2026/05/06 10:39:52:879',3,0.58814,0.884104,0,0.560482,0.848646,-0.014636,0.55546,0.782414,-0.023238,0.581091,0.733731,-0.031682,0.597805,0.693806,-0.039074,0.580337,0.728743,-0.015395,0.574442,0.661391,-0.036706,0.569776,0.617947,-0.045032,0.569681,0.585233,-0.049862,0.61016,0.747551,-0.017676,0.616216,0.70356,-0.042898,0.591885,0.756126,-0.037335,0.593029,0.783529,-0.025544,0.631076,0.775348,-0.023416,0.629089,0.749741,-0.050955,0.601737,0.793052,-0.036286,0.603974,0.812544,-0.019139,0.647391,0.807974,-0.030359,0.637256,0.790293,-0.049763,0.615767,0.817611,-0.042041,0.617487,0.832522,-0.032109,0,0,1
609,'2026/05/06 10:39:52:909',3,0.588067,0.883332,0,0.56073,0.850038,-0.013895,0.554948,0.782627,-0.021141,0.581351,0.733449,-0.028044,0.597034,0.694764,-0.03396,0.579143,0.729085,-0.015489,0.573391,0.662277,-0.035607,0.569676,0.619468,-0.043329,0.570278,0.586052,-0.048132,0.608519,0.747305,-0.017883,0.615007,0.703351,-0.042431,0.591686,0.755861,-0.036671,0.59211,0.781888,-0.025152,0.629423,0.774734,-0.023525,0.62836,0.748685,-0.050141,0.602179,0.791341,-0.035023,0.603726,0.808902,-0.018075,0.645771,0.807065,-0.030369,0.636312,0.790383,-0.049003,0.615869,0.817315,-0.041165,0.618057,0.829983,-0.031597,0,0,1
610,'2026/05/06 10:39:52:941',3,0.588346,0.884317,0,0.560282,0.849519,-0.015359,0.554553,0.782566,-0.024933,0.580691,0.732772,-0.03427,0.598258,0.692916,-0.042556,0.580458,0.729256,-0.016584,0.574208,0.662037,-0.037858,0.569392,0.617828,-0.045838,0.569139,0.583958,-0.050691,0.610928,0.747369,-0.018364,0.614422,0.703091,-0.043218,0.590562,0.756926,-0.037154,0.592763,0.784752,-0.025294,0.631904,0.774751,-0.0236,0.627213,0.748832,-0.05076,0.600367,0.793551,-0.035969,0.603745,0.812923,-0.019092,0.648079,0.806865,-0.030061,0.634025,0.789539,-0.049141,0.61412,0.818236,-0.04188,0.618897,0.832883,-0.032576,0,0,1
611,'2026/05/06 10:39:52:973',3,0.586657,0.885828,0,0.559787,0.850742,-0.013105,0.554863,0.783142,-0.02112,0.580389,0.732074,-0.029334,0.596133,0.690981,-0.036671,0.579455,0.729996,-0.012988,0.572462,0.664627,-0.032562,0.568268,0.619762,-0.039777,0.568492,0.585505,-0.044312,0.608757,0.747559,-0.016288,0.614137,0.702743,-0.040156,0.590904,0.755113,-0.034173,0.592844,0.781679,-0.022467,0.629743,0.774641,-0.022881,0.627388,0.747639,-0.048187,0.601573,0.790229,-0.03252,0.605022,0.808413,-0.01553,0.6461,0.807171,-0.030786,0.635316,0.789759,-0.047716,0.615365,0.816395,-0.039124,0.619318,0.829657,-0.0293,0,0,1
612,'2026/05/06 10:39:53:004',3,0.586657,0.885828,0,0.559787,0.850742,-0.013105,0.554863,0.783142,-0.02112,0.580389,0.732074,-0.029334,0.596133,0.690981,-0.036671,0.579455,0.729996,-0.012988,0.572462,0.664627,-0.032562,0.568268,0.619762,-0.039777,0.568492,0.585505,-0.044312,0.608757,0.747559,-0.016288,0.614137,0.702743,-0.040156,0.590904,0.755113,-0.034173,0.592844,0.781679,-0.022467,0.629743,0.774641,-0.022881,0.627388,0.747639,-0.048187,0.601573,0.790229,-0.03252,0.605022,0.808413,-0.01553,0.6461,0.807171,-0.030786,0.635316,0.789759,-0.047716,0.615365,0.816395,-0.039124,0.619318,0.829657,-0.0293,0,0,1
613,'2026/05/06 10:39:53:035',3,0.588249,0.88218,0,0.560178,0.848985,-0.013314,0.554677,0.781479,-0.021251,0.581357,0.732098,-0.029118,0.597282,0.692689,-0.035996,0.580334,0.728623,-0.015007,0.573528,0.662451,-0.036131,0.568008,0.61901,-0.04444,0.567979,0.585886,-0.049406,0.610278,0.746763,-0.017321,0.613834,0.704141,-0.041381,0.589752,0.75675,-0.034834,0.592311,0.783972,-0.022847,0.630686,0.773921,-0.023022,0.627553,0.748016,-0.049549,0.600324,0.790387,-0.034344,0.603696,0.809324,-0.017361,0.64688,0.805892,-0.029768,0.634488,0.789309,-0.047802,0.613873,0.816246,-0.039812,0.617899,0.830064,-0.03024,0,0,1
614,'2026/05/06 10:39:53:067',3,0.587539,0.884051,0,0.559415,0.84844,-0.01262,0.554597,0.781603,-0.01963,0.579922,0.732033,-0.026567,0.596671,0.693447,-0.032648,0.579027,0.729369,-0.013539,0.57268,0.661938,-0.033619,0.567533,0.618096,-0.041671,0.567131,0.584717,-0.046621,0.608466,0.748203,-0.016093,0.614149,0.702914,-0.03989,0.590204,0.754933,-0.03429,0.591347,0.783309,-0.022885,0.629332,0.776044,-0.021794,0.627728,0.748736,-0.048042,0.600768,0.791721,-0.033209,0.603432,0.811587,-0.016301,0.645677,0.808649,-0.028463,0.63512,0.789923,-0.047017,0.614644,0.817599,-0.039073,0.618107,0.832751,-0.029259,0,0,1
615,'2026/05/06 10:39:53:097',3,0.588259,0.887007,0,0.560344,0.851715,-0.012703,0.554813,0.783894,-0.020823,0.580811,0.732694,-0.029244,0.597249,0.692749,-0.036906,0.579751,0.731532,-0.012649,0.57281,0.665632,-0.032612,0.568426,0.620204,-0.039934,0.56795,0.586225,-0.044165,0.609248,0.749558,-0.015526,0.614862,0.70518,-0.039447,0.591093,0.757432,-0.03285,0.592197,0.784681,-0.020343,0.629681,0.776327,-0.021764,0.627173,0.750307,-0.048304,0.601087,0.793214,-0.033405,0.604237,0.812088,-0.01628,0.646053,0.807889,-0.028996,0.634233,0.791026,-0.046543,0.61465,0.81886,-0.038387,0.618996,0.832793,-0.028663,0,0,1
616,'2026/05/06 10:39:53:129',3,0.58731,0.884365,0,0.560089,0.850688,-0.013465,0.55457,0.783318,-0.022249,0.581071,0.732755,-0.031099,0.596933,0.692256,-0.03905,0.580996,0.730722,-0.014554,0.573882,0.665862,-0.035559,0.568719,0.620809,-0.04344,0.56856,0.586798,-0.048089,0.610243,0.749039,-0.017195,0.615017,0.703788,-0.040912,0.59035,0.756501,-0.033577,0.593204,0.782615,-0.020871,0.630589,0.776699,-0.023316,0.628247,0.748967,-0.04912,0.601246,0.791518,-0.033054,0.605231,0.810271,-0.015539,0.646853,0.809193,-0.030623,0.635583,0.791842,-0.047828,0.615278,0.817951,-0.03936,0.619696,0.831351,-0.029528,0,0,1
617,'2026/05/06 10:39:53:162',3,0.590418,0.883928,0,0.560284,0.852677,-0.013192,0.554166,0.783096,-0.019976,0.5818,0.733239,-0.026478,0.598483,0.6948,-0.03209,0.5796,0.731637,-0.015263,0.573503,0.663644,-0.035646,0.568573,0.620559,-0.043424,0.568458,0.586637,-0.048359,0.609712,0.749833,-0.017625,0.615263,0.70352,-0.042433,0.591318,0.756926,-0.036633,0.592607,0.784508,-0.025076,0.630737,0.776771,-0.023164,0.629757,0.748894,-0.050491,0.602725,0.792714,-0.035237,0.604683,0.811989,-0.018063,0.647875,0.80843,-0.029708,0.637649,0.789873,-0.049246,0.616489,0.818285,-0.041649,0.618913,0.832529,-0.032171,0,0,1
618,'2026/05/06 10:39:53:210',3,0.588441,0.886082,0,0.561199,0.849945,-0.011891,0.555697,0.78364,-0.019983,0.581519,0.73405,-0.028337,0.598339,0.694969,-0.035926,0.580329,0.731647,-0.013816,0.574126,0.665685,-0.034629,0.569297,0.621036,-0.043022,0.568926,0.587183,-0.048092,0.609917,0.750317,-0.017073,0.615472,0.703538,-0.041335,0.592024,0.755266,-0.035683,0.593641,0.783195,-0.024246,0.630793,0.777565,-0.023415,0.62869,0.747958,-0.049252,0.602551,0.790401,-0.033915,0.605446,0.810641,-0.0169,0.647378,0.81007,-0.030726,0.636769,0.789528,-0.047914,0.61672,0.816132,-0.039183,0.620025,0.831154,-0.029125,0,0,1
619,'2026/05/06 10:39:53:260',3,0.589133,0.883933,0,0.560878,0.851573,-0.011289,0.555634,0.782877,-0.018025,0.583724,0.732321,-0.024815,0.598951,0.692707,-0.030972,0.580699,0.731291,-0.013876,0.574049,0.665743,-0.034908,0.569741,0.620837,-0.043482,0.569532,0.586713,-0.048334,0.610142,0.750184,-0.01635,0.61569,0.704232,-0.039019,0.591773,0.756151,-0.03122,0.593465,0.782871,-0.018403,0.630381,0.777389,-0.022061,0.630371,0.747947,-0.048136,0.603267,0.790052,-0.03263,0.605288,0.810344,-0.015262,0.647516,0.808935,-0.028494,0.638553,0.790382,-0.046025,0.617331,0.817295,-0.037548,0.619447,0.831991,-0.027669,0,0,1
620,'2026/05/06 10:39:53:288',3,0.590307,0.883571,0,0.561811,0.850997,-0.012749,0.556152,0.782697,-0.019856,0.582359,0.732307,-0.026702,0.599197,0.693992,-0.032687,0.580694,0.729543,-0.014155,0.574422,0.663076,-0.034044,0.570274,0.618201,-0.041845,0.569942,0.584365,-0.04657,0.609975,0.747783,-0.016319,0.616821,0.704463,-0.039905,0.593818,0.756661,-0.033452,0.594271,0.784436,-0.021346,0.630276,0.774609,-0.021687,0.629731,0.749418,-0.048548,0.603825,0.792064,-0.034075,0.605897,0.810949,-0.0172,0.647125,0.806184,-0.02789,0.637763,0.78893,-0.046541,0.61726,0.817088,-0.038773,0.619649,0.831281,-0.029202,0,0,1
621,'2026/05/06 10:39:53:317',3,0.588608,0.886464,0,0.561653,0.850607,-0.014021,0.556761,0.783523,-0.022733,0.582118,0.734213,-0.031404,0.599303,0.695373,-0.039207,0.581958,0.732596,-0.013979,0.574942,0.666329,-0.034292,0.569573,0.620969,-0.042239,0.569397,0.587005,-0.047063,0.610983,0.750643,-0.016611,0.616682,0.706571,-0.041752,0.592338,0.756564,-0.036868,0.593553,0.784285,-0.02557,0.631184,0.777555,-0.022516,0.629398,0.750612,-0.049613,0.602435,0.79199,-0.035227,0.605737,0.811252,-0.018378,0.647231,0.809823,-0.029547,0.635776,0.791435,-0.047341,0.615689,0.818029,-0.038982,0.620116,0.832223,-0.028958,0,0,1
622,'2026/05/06 10:39:53:343',3,0.58988,0.884971,0,0.56127,0.854694,-0.011118,0.555761,0.784763,-0.017773,0.584935,0.733028,-0.024534,0.599937,0.693058,-0.030798,0.58022,0.733706,-0.013135,0.57434,0.669245,-0.033128,0.570191,0.623639,-0.040327,0.570163,0.588737,-0.044333,0.61022,0.752004,-0.01562,0.615961,0.705527,-0.037297,0.592026,0.757783,-0.028052,0.594623,0.783217,-0.014099,0.63032,0.778863,-0.021432,0.630188,0.749218,-0.046948,0.603439,0.791644,-0.03106,0.606023,0.811071,-0.013546,0.647887,0.809611,-0.027955,0.637637,0.791879,-0.045065,0.617172,0.819194,-0.036878,0.620333,0.832907,-0.027406,0,0,1
623,'2026/05/06 10:39:53:407',3,0.591469,0.88763,0,0.563363,0.852684,-0.012091,0.558439,0.785494,-0.019122,0.584479,0.735755,-0.02627,0.600951,0.696519,-0.032819,0.582295,0.733803,-0.01281,0.576259,0.666842,-0.032317,0.57151,0.621684,-0.039934,0.571338,0.587547,-0.04448,0.611181,0.752592,-0.01554,0.618457,0.70687,-0.039154,0.595427,0.757113,-0.033464,0.596143,0.785183,-0.021806,0.631436,0.779806,-0.021355,0.631282,0.751339,-0.047754,0.605464,0.792488,-0.033681,0.607918,0.812129,-0.017079,0.648001,0.811898,-0.027993,0.639593,0.792238,-0.045549,0.61968,0.818676,-0.037261,0.622135,0.833683,-0.027401,0,0,1
624,'2026/05/06 10:39:53:444',3,0.590185,0.886089,0,0.56233,0.853417,-0.012608,0.557879,0.784863,-0.019945,0.58575,0.734958,-0.027097,0.601428,0.695584,-0.033229,0.583356,0.730317,-0.014292,0.577415,0.665111,-0.035149,0.572519,0.621254,-0.043476,0.572433,0.587654,-0.048429,0.613037,0.750001,-0.01635,0.618549,0.706207,-0.039228,0.594033,0.75834,-0.031699,0.596176,0.784239,-0.019256,0.63294,0.778128,-0.021807,0.632834,0.75112,-0.047475,0.605363,0.792269,-0.031953,0.608155,0.810606,-0.014974,0.649255,0.810617,-0.028207,0.639513,0.794177,-0.045632,0.6188,0.820371,-0.037683,0.622255,0.833342,-0.028385,0,0,1
625,'2026/05/06 10:39:53:473',3,0.59045,0.885423,0,0.563197,0.853745,-0.012162,0.559212,0.787528,-0.019585,0.586138,0.737854,-0.026732,0.602029,0.698545,-0.033088,0.58324,0.733657,-0.015327,0.578494,0.669061,-0.036357,0.574436,0.622947,-0.044964,0.573364,0.588778,-0.049857,0.61253,0.752411,-0.016872,0.620033,0.708115,-0.039102,0.596336,0.759777,-0.030649,0.596471,0.786576,-0.017348,0.632295,0.779682,-0.021657,0.633181,0.752849,-0.048013,0.606881,0.794933,-0.032842,0.608304,0.813937,-0.015652,0.649134,0.811737,-0.027106,0.640164,0.796381,-0.04537,0.620069,0.823696,-0.037572,0.622749,0.837164,-0.028235,0,0,1
626,'2026/05/06 10:39:53:505',3,0.591654,0.887939,0,0.56329,0.85288,-0.012644,0.559173,0.786263,-0.020234,0.586801,0.73702,-0.027703,0.603139,0.698077,-0.034294,0.583917,0.733376,-0.014901,0.578663,0.667329,-0.036233,0.573479,0.622416,-0.045038,0.572879,0.588245,-0.050073,0.613669,0.752418,-0.016573,0.620605,0.708842,-0.039951,0.596866,0.760208,-0.032896,0.597864,0.787604,-0.020466,0.633734,0.77981,-0.021507,0.633248,0.753554,-0.048263,0.606234,0.795464,-0.033505,0.608262,0.814767,-0.01643,0.650323,0.811755,-0.027218,0.639388,0.795403,-0.044903,0.619561,0.822504,-0.036759,0.623352,0.836371,-0.02708,0,0,1
627,'2026/05/06 10:39:53:536',3,0.592225,0.889758,0,0.564005,0.854269,-0.012344,0.559925,0.786657,-0.019761,0.586322,0.736225,-0.027253,0.602489,0.696076,-0.034051,0.583695,0.735373,-0.013492,0.578041,0.668439,-0.033889,0.573247,0.62309,-0.042038,0.572415,0.588831,-0.046722,0.612972,0.754197,-0.015854,0.620396,0.709069,-0.039137,0.596775,0.759435,-0.032607,0.597309,0.786651,-0.02046,0.633057,0.781528,-0.021399,0.63308,0.754704,-0.047836,0.606703,0.795717,-0.033204,0.608809,0.815046,-0.016239,0.649217,0.813517,-0.027762,0.640269,0.79543,-0.045414,0.620314,0.821822,-0.036938,0.622968,0.836467,-0.026953,0,0,1
628,'2026/05/06 10:39:53:568',3,0.591309,0.885816,0,0.563562,0.854271,-0.010626,0.55847,0.788215,-0.017611,0.585947,0.739036,-0.024505,0.602712,0.700236,-0.030657,0.582986,0.733464,-0.014501,0.578013,0.667846,-0.035437,0.574917,0.621729,-0.044326,0.574398,0.588266,-0.049393,0.612589,0.752613,-0.016436,0.619809,0.709439,-0.038626,0.596098,0.761417,-0.030262,0.595475,0.789038,-0.017011,0.63221,0.780054,-0.021421,0.63326,0.753047,-0.047663,0.60689,0.795275,-0.032893,0.607656,0.815855,-0.015962,0.649042,0.811911,-0.026829,0.639235,0.795938,-0.04527,0.619137,0.823697,-0.037757,0.621685,0.838203,-0.028512,0,0,1
629,'2026/05/06 10:39:53:598',3,0.591433,0.885849,0,0.563365,0.853813,-0.009066,0.558856,0.787977,-0.016509,0.586519,0.738886,-0.024138,0.602794,0.700444,-0.031112,0.583946,0.734982,-0.014278,0.57987,0.670915,-0.036395,0.576251,0.625375,-0.045773,0.575876,0.591335,-0.050826,0.613392,0.75455,-0.016467,0.620481,0.709799,-0.037373,0.596022,0.762937,-0.027013,0.596961,0.789252,-0.012677,0.632468,0.781984,-0.021787,0.634245,0.75305,-0.047719,0.606968,0.796005,-0.032148,0.608147,0.816974,-0.014871,0.649729,0.813525,-0.027259,0.640517,0.796761,-0.045022,0.619749,0.824897,-0.036949,0.621749,0.839888,-0.027607,0,0,1
630,'2026/05/06 10:39:53:630',3,0.590534,0.887753,0,0.563095,0.853939,-0.010954,0.559557,0.787796,-0.018759,0.587003,0.739236,-0.026659,0.603691,0.700495,-0.033803,0.584666,0.736467,-0.014808,0.580274,0.669974,-0.036139,0.575582,0.623556,-0.045019,0.575217,0.589334,-0.050244,0.614182,0.755175,-0.017205,0.620227,0.709725,-0.039919,0.595021,0.762064,-0.031647,0.596582,0.791057,-0.018471,0.633799,0.782856,-0.02276,0.633369,0.755029,-0.048343,0.606167,0.796612,-0.032559,0.60924,0.817401,-0.015267,0.650413,0.815218,-0.028975,0.640044,0.797951,-0.046003,0.619887,0.82418,-0.037441,0.624042,0.838856,-0.027772,0,0,1
631,'2026/05/06 10:39:53:662',3,0.591862,0.888257,0,0.563901,0.855353,-0.01047,0.560106,0.788401,-0.017946,0.588173,0.738814,-0.025658,0.604614,0.699017,-0.032672,0.585302,0.736299,-0.013216,0.58045,0.672041,-0.033687,0.575391,0.6257,-0.041669,0.574644,0.591365,-0.046383,0.615574,0.755428,-0.015533,0.621061,0.709435,-0.037139,0.595922,0.762763,-0.028009,0.598245,0.791375,-0.014248,0.635008,0.782863,-0.021023,0.634325,0.754527,-0.046377,0.60714,0.797337,-0.030645,0.61026,0.817907,-0.01344,0.651577,0.814921,-0.027019,0.639503,0.797024,-0.044241,0.619839,0.824694,-0.036168,0.624676,0.839398,-0.026942,0,0,1
632,'2026/05/06 10:39:53:711',3,0.593587,0.891478,0,0.564949,0.857733,-0.011228,0.560077,0.789003,-0.018512,0.587866,0.738472,-0.025899,0.60408,0.699434,-0.032435,0.585868,0.735496,-0.013978,0.580018,0.669899,-0.035029,0.57532,0.624515,-0.043638,0.574263,0.590193,-0.048776,0.615782,0.754608,-0.016577,0.621259,0.710784,-0.039872,0.597695,0.76394,-0.03253,0.598902,0.791476,-0.020084,0.635411,0.7822,-0.022301,0.634374,0.756161,-0.048852,0.60828,0.798749,-0.033315,0.610493,0.81882,-0.016053,0.651366,0.814936,-0.028702,0.640423,0.798214,-0.046663,0.620391,0.826207,-0.038254,0.623524,0.840599,-0.028522,0,0,1
633,'2026/05/06 10:39:53:739',3,0.593587,0.891478,0,0.564949,0.857733,-0.011228,0.560077,0.789003,-0.018512,0.587866,0.738472,-0.025899,0.60408,0.699434,-0.032435,0.585868,0.735496,-0.013978,0.580018,0.669899,-0.035029,0.57532,0.624515,-0.043638,0.574263,0.590193,-0.048776,0.615782,0.754608,-0.016577,0.621259,0.710784,-0.039872,0.597695,0.76394,-0.03253,0.598902,0.791476,-0.020084,0.635411,0.7822,-0.022301,0.634374,0.756161,-0.048852,0.60828,0.798749,-0.033315,0.610493,0.81882,-0.016053,0.651366,0.814936,-0.028702,0.640423,0.798214,-0.046663,0.620391,0.826207,-0.038254,0.623524,0.840599,-0.028522,0,0,1
634,'2026/05/06 10:39:53:772',3,0.59286,0.89017,0,0.56504,0.856491,-0.011949,0.560702,0.788724,-0.019216,0.588295,0.738131,-0.02636,0.604997,0.698949,-0.032728,0.584679,0.736024,-0.014014,0.579789,0.669703,-0.033681,0.57601,0.624206,-0.041288,0.575566,0.590355,-0.045774,0.614367,0.755043,-0.016146,0.621509,0.711084,-0.038983,0.598496,0.762364,-0.031962,0.59897,0.789798,-0.019619,0.634436,0.782598,-0.02131,0.634439,0.757025,-0.047212,0.608754,0.798779,-0.032381,0.61067,0.818253,-0.015574,0.650961,0.814831,-0.027228,0.641236,0.797765,-0.044795,0.621663,0.82553,-0.036749,0.624894,0.839864,-0.027278,0,0,1
635,'2026/05/06 10:39:53:805',3,0.593142,0.890995,0,0.564987,0.855128,-0.011977,0.561408,0.788585,-0.019658,0.587824,0.739403,-0.02735,0.605355,0.700568,-0.034157,0.585985,0.737779,-0.01484,0.581344,0.66979,-0.035768,0.576117,0.625004,-0.044024,0.576101,0.590679,-0.048984,0.615749,0.757407,-0.0171,0.622504,0.712236,-0.040789,0.597756,0.764899,-0.03396,0.599212,0.793247,-0.021737,0.63568,0.785513,-0.022445,0.635551,0.757274,-0.049041,0.608119,0.799825,-0.034103,0.611143,0.819776,-0.017143,0.652018,0.818137,-0.028494,0.641404,0.799298,-0.046617,0.621012,0.826315,-0.038553,0.624662,0.841209,-0.028936,0,0,1
636,'2026/05/06 10:39:53:839',3,0.593706,0.890881,0,0.564985,0.856263,-0.014379,0.560619,0.78911,-0.022246,0.588584,0.740632,-0.029621,0.605685,0.70217,-0.035814,0.586236,0.735777,-0.015588,0.581035,0.669729,-0.0369,0.576051,0.625331,-0.045712,0.575987,0.591599,-0.050988,0.616285,0.755223,-0.016829,0.622753,0.711505,-0.041686,0.598398,0.762827,-0.036114,0.599375,0.791116,-0.024565,0.636252,0.782786,-0.021404,0.63525,0.75763,-0.048895,0.608101,0.798389,-0.034555,0.610793,0.81741,-0.017684,0.652506,0.815461,-0.026956,0.641746,0.798452,-0.044936,0.621723,0.824899,-0.036957,0.625652,0.838565,-0.027366,0,0,1
637,'2026/05/06 10:39:53:871',3,0.592946,0.892468,0,0.566197,0.857163,-0.01356,0.561522,0.790341,-0.022028,0.58809,0.740628,-0.030382,0.60517,0.701556,-0.037809,0.585916,0.736915,-0.015362,0.580303,0.669605,-0.035958,0.575649,0.625858,-0.043736,0.576241,0.591957,-0.048454,0.615398,0.756286,-0.018152,0.622138,0.711603,-0.04282,0.598536,0.763383,-0.037235,0.599785,0.789578,-0.025992,0.635866,0.784526,-0.024145,0.635422,0.756919,-0.050863,0.60865,0.799282,-0.035669,0.610788,0.817909,-0.018726,0.651697,0.817432,-0.031251,0.642395,0.798703,-0.049033,0.621064,0.825763,-0.040451,0.622666,0.839635,-0.030489,0,0,1
638,'2026/05/06 10:39:53:902',3,0.593015,0.893273,0,0.56593,0.854828,-0.01414,0.561886,0.789604,-0.022462,0.586995,0.741452,-0.0306,0.605045,0.703027,-0.037745,0.586319,0.736837,-0.014437,0.580187,0.669792,-0.035405,0.574873,0.625592,-0.044144,0.574786,0.591575,-0.049574,0.61635,0.755856,-0.016827,0.623005,0.71249,-0.041992,0.599527,0.76295,-0.03779,0.600243,0.790637,-0.027292,0.636995,0.784247,-0.022467,0.635234,0.75887,-0.049483,0.608326,0.800264,-0.03547,0.611296,0.818527,-0.01907,0.65279,0.818038,-0.029253,0.641044,0.801426,-0.047385,0.62092,0.828017,-0.039418,0.624932,0.841388,-0.029714,0,0,1
639,'2026/05/06 10:39:53:934',3,0.594018,0.891713,0,0.565841,0.855477,-0.014538,0.561327,0.789013,-0.022972,0.587973,0.740228,-0.031152,0.606305,0.70197,-0.038387,0.585372,0.736748,-0.014845,0.580386,0.671111,-0.035315,0.575891,0.626831,-0.043562,0.57612,0.593221,-0.048809,0.615349,0.755959,-0.016942,0.622311,0.712185,-0.041627,0.598793,0.763045,-0.036872,0.59961,0.791104,-0.026173,0.636052,0.784029,-0.022321,0.636051,0.75766,-0.049065,0.609053,0.79901,-0.034494,0.611168,0.818038,-0.017877,0.651882,0.817071,-0.028891,0.642288,0.799133,-0.047113,0.621949,0.825708,-0.039145,0.624959,0.8395,-0.029554,0,0,1
640,'2026/05/06 10:39:53:965',3,0.594778,0.892779,0,0.566079,0.85596,-0.016179,0.56064,0.790842,-0.024954,0.58726,0.742814,-0.03321,0.605798,0.704441,-0.040368,0.584918,0.735644,-0.015502,0.579708,0.669005,-0.036234,0.575531,0.625713,-0.044585,0.576279,0.592424,-0.049728,0.615252,0.755054,-0.016922,0.623118,0.712681,-0.042781,0.600183,0.764227,-0.039009,0.600197,0.791708,-0.028657,0.636472,0.782649,-0.021764,0.635459,0.759043,-0.050159,0.608716,0.801952,-0.036687,0.609934,0.820337,-0.020211,0.65255,0.814999,-0.027857,0.642372,0.797778,-0.047254,0.621948,0.826315,-0.039788,0.623966,0.840356,-0.030153,0,0,1
641,'2026/05/06 10:39:53:999',3,0.59407,0.891238,0,0.566345,0.858153,-0.011237,0.561417,0.790385,-0.018929,0.589471,0.740219,-0.026928,0.606078,0.700907,-0.034398,0.586554,0.738678,-0.013114,0.580243,0.672911,-0.033592,0.576039,0.626576,-0.041528,0.575426,0.592286,-0.045949,0.615392,0.758314,-0.015957,0.62189,0.712691,-0.038911,0.598267,0.763562,-0.031284,0.599645,0.790714,-0.018329,0.634917,0.786016,-0.022012,0.635398,0.756286,-0.048111,0.608683,0.797666,-0.032929,0.610856,0.817659,-0.015743,0.651456,0.818157,-0.028756,0.641685,0.799139,-0.045913,0.621626,0.825915,-0.037402,0.62479,0.840654,-0.02757,0,0,1
642,'2026/05/06 10:39:54:036',3,0.592951,0.893214,0,0.566282,0.858629,-0.013052,0.561905,0.791713,-0.020682,0.589011,0.742105,-0.028094,0.605037,0.702907,-0.034425,0.585939,0.736683,-0.014971,0.58,0.670553,-0.035937,0.575397,0.626516,-0.044551,0.57548,0.592313,-0.04985,0.615339,0.756252,-0.017278,0.622424,0.710813,-0.041527,0.599081,0.762765,-0.035668,0.600196,0.789185,-0.024317,0.635565,0.78443,-0.022787,0.636095,0.756619,-0.048831,0.609189,0.798365,-0.033107,0.611024,0.816554,-0.015929,0.65153,0.817322,-0.029412,0.642594,0.799998,-0.04657,0.622114,0.826241,-0.037962,0.624925,0.838872,-0.028174,0,0,1
643,'2026/05/06 10:39:54:075',3,0.592144,0.895105,0,0.565998,0.858244,-0.012952,0.562015,0.791481,-0.021342,0.588171,0.741671,-0.029926,0.605355,0.702639,-0.037576,0.585903,0.73829,-0.013338,0.579937,0.671691,-0.033889,0.575343,0.626356,-0.041604,0.576009,0.591897,-0.046123,0.614765,0.757815,-0.01635,0.622014,0.711987,-0.041228,0.598329,0.763247,-0.035627,0.599774,0.790475,-0.02384,0.63513,0.786125,-0.022627,0.635081,0.757545,-0.048868,0.608297,0.799615,-0.03342,0.611,0.818651,-0.015984,0.65118,0.819251,-0.030044,0.641879,0.800227,-0.046647,0.621726,0.826118,-0.037781,0.625028,0.839662,-0.027602,0,0,1
644,'2026/05/06 10:39:54:113',3,0.594852,0.895347,0,0.566675,0.859711,-0.012639,0.561526,0.791498,-0.020789,0.589278,0.741508,-0.029082,0.606594,0.702776,-0.036445,0.585963,0.738672,-0.013296,0.58079,0.672908,-0.033604,0.57589,0.628171,-0.041182,0.57593,0.593884,-0.045732,0.616277,0.757916,-0.016026,0.622678,0.712604,-0.040354,0.598281,0.764176,-0.034224,0.599705,0.791887,-0.022281,0.636544,0.785408,-0.022029,0.63522,0.758977,-0.048557,0.608379,0.800471,-0.033594,0.611407,0.819498,-0.01663,0.652732,0.81775,-0.028989,0.641401,0.79988,-0.045867,0.621343,0.826791,-0.037435,0.625221,0.840568,-0.027816,0,0,1
645,'2026/05/06 10:39:54:149',3,0.594852,0.895347,0,0.566675,0.859711,-0.012639,0.561526,0.791498,-0.020789,0.589278,0.741508,-0.029082,0.606594,0.702776,-0.036445,0.585963,0.738672,-0.013296,0.58079,0.672908,-0.033604,0.57589,0.628171,-0.041182,0.57593,0.593884,-0.045732,0.616277,0.757916,-0.016026,0.622678,0.712604,-0.040354,0.598281,0.764176,-0.034224,0.599705,0.791887,-0.022281,0.636544,0.785408,-0.022029,0.63522,0.758977,-0.048557,0.608379,0.800471,-0.033594,0.611407,0.819498,-0.01663,0.652732,0.81775,-0.028989,0.641401,0.79988,-0.045867,0.621343,0.826791,-0.037435,0.625221,0.840568,-0.027816,0,0,1
646,'2026/05/06 10:39:54:182',3,0.593726,0.893908,0,0.566759,0.856752,-0.014186,0.562054,0.790179,-0.022686,0.588309,0.740732,-0.030972,0.605463,0.701343,-0.03825,0.585674,0.738393,-0.015441,0.580028,0.671328,-0.035732,0.575817,0.627043,-0.043512,0.576562,0.59297,-0.048419,0.615061,0.75807,-0.017992,0.622167,0.711973,-0.042519,0.597742,0.763548,-0.036986,0.598923,0.790398,-0.025678,0.635618,0.786874,-0.023778,0.635616,0.758766,-0.049617,0.608645,0.799492,-0.034013,0.611192,0.817529,-0.016884,0.651243,0.820356,-0.030843,0.643225,0.799991,-0.048178,0.622732,0.825085,-0.039436,0.625353,0.838745,-0.029373,0,0,1
647,'2026/05/06 10:39:54:211',3,0.593169,0.891707,0,0.566006,0.856305,-0.013431,0.561964,0.789489,-0.021318,0.58813,0.740427,-0.029065,0.605649,0.702133,-0.035915,0.586065,0.737879,-0.014465,0.58107,0.671092,-0.034583,0.576572,0.626813,-0.042561,0.576617,0.592972,-0.047545,0.615193,0.757185,-0.017237,0.623016,0.712709,-0.042281,0.598977,0.762952,-0.037636,0.599287,0.790785,-0.026811,0.635509,0.785129,-0.0231,0.635549,0.757981,-0.049798,0.608672,0.798849,-0.035124,0.61093,0.817959,-0.018374,0.651375,0.81819,-0.030066,0.64221,0.79964,-0.047906,0.621845,0.825883,-0.039564,0.624865,0.840019,-0.029717,0,0,1
648,'2026/05/06 10:39:54:243',3,0.594387,0.893122,0,0.566331,0.8593,-0.012154,0.561573,0.790544,-0.020049,0.589369,0.739631,-0.028124,0.605432,0.69953,-0.03555,0.58693,0.739975,-0.014126,0.580882,0.672536,-0.034786,0.576232,0.627275,-0.042324,0.577032,0.59233,-0.046618,0.6161,0.75914,-0.017036,0.623246,0.71352,-0.04067,0.597854,0.764802,-0.033112,0.600199,0.790852,-0.020157,0.635461,0.787389,-0.023255,0.636275,0.759081,-0.049629,0.608079,0.799855,-0.034182,0.61153,0.81851,-0.016846,0.651187,0.819629,-0.030343,0.641687,0.80222,-0.047265,0.620929,0.827554,-0.038712,0.624769,0.840987,-0.02894,0,0,1
649,'2026/05/06 10:39:54:275',3,0.594285,0.893074,0,0.566169,0.856914,-0.013434,0.561537,0.790227,-0.020842,0.587803,0.741454,-0.027959,0.605243,0.703386,-0.034205,0.586498,0.738688,-0.015241,0.580711,0.671094,-0.035398,0.576207,0.62724,-0.043787,0.576165,0.594058,-0.049209,0.615812,0.757947,-0.017828,0.622767,0.712987,-0.042725,0.598716,0.76389,-0.038275,0.598577,0.792435,-0.027791,0.636223,0.786238,-0.023475,0.635745,0.759029,-0.049993,0.608718,0.800062,-0.03548,0.610315,0.81931,-0.01896,0.651889,0.819411,-0.03023,0.642737,0.800496,-0.048729,0.621938,0.826345,-0.040875,0.62424,0.840406,-0.031302,0,0,1
650,'2026/05/06 10:39:54:305',3,0.593422,0.892667,0,0.566155,0.856716,-0.014166,0.561327,0.79163,-0.023002,0.587398,0.743951,-0.031519,0.605466,0.705437,-0.039101,0.586271,0.737319,-0.016852,0.580923,0.670238,-0.038695,0.576584,0.626133,-0.04805,0.576946,0.592919,-0.05372,0.615986,0.757384,-0.019156,0.623425,0.714156,-0.044558,0.598604,0.764932,-0.039742,0.598779,0.792796,-0.028843,0.636513,0.78639,-0.02465,0.636839,0.759109,-0.052187,0.609181,0.800035,-0.037729,0.611444,0.819412,-0.020919,0.652448,0.820421,-0.031162,0.642953,0.802002,-0.049914,0.622385,0.828341,-0.041706,0.62549,0.842876,-0.031701,0,0,1
651,'2026/05/06 10:39:54:338',3,0.594081,0.896598,0,0.566874,0.860044,-0.012185,0.562324,0.79313,-0.020117,0.588554,0.743864,-0.028213,0.604816,0.70422,-0.035449,0.586486,0.741548,-0.014179,0.580819,0.673869,-0.034751,0.576277,0.628564,-0.043012,0.577072,0.593139,-0.048221,0.615525,0.761171,-0.017493,0.622958,0.713958,-0.042055,0.598968,0.764152,-0.036635,0.600689,0.790784,-0.025532,0.635755,0.789406,-0.023893,0.635848,0.758975,-0.049562,0.609212,0.799517,-0.034105,0.612701,0.81813,-0.017271,0.651756,0.822077,-0.031371,0.64275,0.80191,-0.047856,0.622577,0.827049,-0.038917,0.626211,0.840792,-0.029049,0,0,1
652,'2026/05/06 10:39:54:370',3,0.59531,0.893376,0,0.567426,0.859348,-0.011039,0.562347,0.792338,-0.018076,0.589783,0.742936,-0.025129,0.605865,0.704167,-0.031382,0.586891,0.739403,-0.014414,0.5816,0.671808,-0.035013,0.576925,0.627027,-0.043884,0.576396,0.592212,-0.049357,0.616431,0.759189,-0.016893,0.622441,0.713411,-0.040227,0.599504,0.764798,-0.034024,0.600592,0.792523,-0.022676,0.635707,0.786742,-0.022281,0.636489,0.757998,-0.048257,0.610331,0.799265,-0.033471,0.612372,0.819451,-0.017029,0.651767,0.819098,-0.028313,0.642389,0.801581,-0.045415,0.62286,0.828488,-0.037146,0.62609,0.84281,-0.027836,0,0,1
653,'2026/05/06 10:39:54:401',3,0.593565,0.895001,0,0.566874,0.859707,-0.012698,0.563057,0.792611,-0.020765,0.58965,0.742915,-0.029025,0.606533,0.703846,-0.036495,0.5871,0.740426,-0.01311,0.581734,0.674699,-0.032879,0.577137,0.62918,-0.040564,0.576875,0.59444,-0.045419,0.616536,0.759639,-0.016187,0.623365,0.714828,-0.040579,0.600484,0.766333,-0.035469,0.601463,0.794297,-0.024318,0.636757,0.787343,-0.022392,0.635692,0.760522,-0.048368,0.60977,0.802285,-0.033564,0.612409,0.82114,-0.016904,0.652568,0.819924,-0.029665,0.642059,0.80179,-0.046517,0.622303,0.828761,-0.038023,0.625818,0.842452,-0.02831,0,0,1
654,'2026/05/06 10:39:54:432',3,0.595685,0.896355,0,0.567964,0.859681,-0.012072,0.562964,0.792597,-0.019455,0.588855,0.743074,-0.027116,0.606744,0.705407,-0.033931,0.586836,0.741252,-0.012063,0.581236,0.6735,-0.031487,0.57675,0.628731,-0.039072,0.576879,0.594458,-0.043825,0.616166,0.760049,-0.015248,0.624504,0.714375,-0.039984,0.600965,0.764916,-0.035293,0.600908,0.793517,-0.024225,0.636472,0.787197,-0.021482,0.636316,0.760573,-0.047749,0.609821,0.801775,-0.033286,0.612159,0.820684,-0.016587,0.652631,0.8194,-0.028702,0.642649,0.80102,-0.045511,0.622846,0.827138,-0.037007,0.626485,0.840694,-0.027218,0,0,1
655,'2026/05/06 10:39:54:463',3,0.594057,0.894283,0,0.567259,0.859576,-0.012909,0.562929,0.792651,-0.020767,0.589383,0.743442,-0.028423,0.60568,0.704314,-0.035122,0.587161,0.739326,-0.014907,0.58162,0.672781,-0.035981,0.577253,0.627674,-0.044786,0.576894,0.592701,-0.050082,0.616251,0.758725,-0.017336,0.623658,0.713886,-0.042114,0.600641,0.765291,-0.036422,0.60112,0.792182,-0.024804,0.636133,0.786625,-0.022937,0.635952,0.759701,-0.049795,0.610158,0.801505,-0.034779,0.61271,0.819671,-0.017661,0.652247,0.819455,-0.029501,0.643333,0.802106,-0.046934,0.623752,0.829316,-0.038231,0.627146,0.842508,-0.028213,0,0,1
656,'2026/05/06 10:39:54:517',3,0.59426,0.89391,0,0.566682,0.857223,-0.014042,0.563181,0.790951,-0.021538,0.588584,0.743219,-0.028702,0.605829,0.70524,-0.034898,0.587198,0.739844,-0.0149,0.58195,0.671729,-0.035012,0.577025,0.627973,-0.043445,0.577359,0.594161,-0.048903,0.616778,0.75916,-0.017693,0.624799,0.71569,-0.043865,0.601288,0.764575,-0.041166,0.600405,0.792596,-0.031766,0.637354,0.787341,-0.023474,0.636921,0.76112,-0.051002,0.609996,0.801948,-0.037445,0.611808,0.820539,-0.021384,0.653096,0.820648,-0.03039,0.642501,0.803057,-0.04871,0.621915,0.829686,-0.040671,0.62499,0.843009,-0.030985,0,0,1
657,'2026/05/06 10:39:54:546',3,0.59426,0.89391,0,0.566682,0.857223,-0.014042,0.563181,0.790951,-0.021538,0.588584,0.743219,-0.028702,0.605829,0.70524,-0.034898,0.587198,0.739844,-0.0149,0.58195,0.671729,-0.035012,0.577025,0.627973,-0.043445,0.577359,0.594161,-0.048903,0.616778,0.75916,-0.017693,0.624799,0.71569,-0.043865,0.601288,0.764575,-0.041166,0.600405,0.792596,-0.031766,0.637354,0.787341,-0.023474,0.636921,0.76112,-0.051002,0.609996,0.801948,-0.037445,0.611808,0.820539,-0.021384,0.653096,0.820648,-0.03039,0.642501,0.803057,-0.04871,0.621915,0.829686,-0.040671,0.62499,0.843009,-0.030985,0,0,1
658,'2026/05/06 10:39:54:581',3,0.594328,0.897382,0,0.567376,0.858951,-0.014189,0.563206,0.793485,-0.022623,0.587937,0.744353,-0.031111,0.6054,0.704489,-0.038639,0.586433,0.741459,-0.013051,0.581483,0.674842,-0.032678,0.576755,0.629812,-0.040229,0.577211,0.595361,-0.044991,0.615902,0.7601,-0.015667,0.623655,0.714151,-0.040853,0.599937,0.764562,-0.03689,0.600424,0.79339,-0.026194,0.636733,0.787446,-0.021507,0.635585,0.760367,-0.047961,0.609479,0.802239,-0.033845,0.612791,0.82111,-0.017336,0.65304,0.82006,-0.028583,0.6423,0.801605,-0.045627,0.622695,0.828145,-0.037365,0.626993,0.841761,-0.027639,0,0,1
659,'2026/05/06 10:39:54:608',3,0.595064,0.897385,0,0.567083,0.858097,-0.015928,0.563638,0.793336,-0.024508,0.588366,0.744711,-0.032627,0.606218,0.705024,-0.039598,0.587711,0.741187,-0.014669,0.582524,0.673365,-0.034576,0.577164,0.629311,-0.042721,0.577503,0.59521,-0.048047,0.617591,0.759312,-0.016692,0.62473,0.714118,-0.042873,0.601717,0.764213,-0.04046,0.60203,0.793883,-0.030995,0.638423,0.786656,-0.021939,0.63604,0.760712,-0.049025,0.609566,0.802841,-0.035658,0.612475,0.822128,-0.019634,0.65416,0.819454,-0.028605,0.641679,0.801673,-0.046187,0.621733,0.82839,-0.038318,0.626153,0.841888,-0.028728,0,0,1
660,'2026/05/06 10:39:54:639',3,0.594158,0.894944,0,0.566904,0.858797,-0.01324,0.563022,0.792538,-0.021386,0.590106,0.744043,-0.02946,0.607194,0.705125,-0.036486,0.58771,0.740609,-0.014784,0.582632,0.673347,-0.035731,0.577786,0.628074,-0.044039,0.577884,0.593936,-0.049019,0.616992,0.760004,-0.01727,0.624106,0.71628,-0.041414,0.599562,0.766965,-0.035014,0.601198,0.794083,-0.023121,0.637009,0.788642,-0.023062,0.637021,0.762467,-0.049294,0.609882,0.802838,-0.033578,0.613153,0.821296,-0.016255,0.65272,0.82217,-0.029951,0.64367,0.804633,-0.047069,0.623581,0.829925,-0.03812,0.627619,0.843385,-0.028023,0,0,1
661,'2026/05/06 10:39:54:670',3,0.594885,0.89688,0,0.567693,0.858857,-0.015696,0.563923,0.793095,-0.02434,0.588569,0.744046,-0.032593,0.606875,0.704786,-0.03974,0.587802,0.742177,-0.01557,0.582231,0.67405,-0.03614,0.577197,0.629497,-0.044714,0.57744,0.594801,-0.050333,0.618244,0.760562,-0.017593,0.624923,0.715619,-0.044277,0.602317,0.766677,-0.041861,0.602411,0.796817,-0.032381,0.639282,0.788025,-0.022758,0.636653,0.762371,-0.05102,0.610469,0.804839,-0.038081,0.613257,0.824278,-0.022149,0.655173,0.820825,-0.029138,0.642923,0.802983,-0.047999,0.623009,0.830673,-0.040455,0.627028,0.844975,-0.030938,0,0,1
662,'2026/05/06 10:39:54:703',3,0.595319,0.896751,0,0.568751,0.858754,-0.016647,0.563334,0.793338,-0.026347,0.587215,0.744826,-0.035749,0.605634,0.706192,-0.043836,0.58795,0.740499,-0.015032,0.582507,0.673401,-0.035935,0.577564,0.629848,-0.044314,0.578073,0.596092,-0.049631,0.617275,0.759327,-0.017083,0.624435,0.714966,-0.043787,0.600974,0.766622,-0.040754,0.601907,0.794673,-0.03077,0.638314,0.786948,-0.02261,0.636854,0.76138,-0.050481,0.60989,0.80433,-0.036217,0.61249,0.822812,-0.019423,0.654201,0.819869,-0.029674,0.643393,0.802134,-0.048016,0.622883,0.829365,-0.039787,0.626358,0.842694,-0.029769,0,0,1
663,'2026/05/06 10:39:54:735',3,0.59545,0.900192,0,0.566992,0.858808,-0.014341,0.564352,0.794147,-0.02254,0.589637,0.745506,-0.030686,0.60744,0.705404,-0.037741,0.587971,0.741915,-0.013351,0.58267,0.673419,-0.0333,0.57696,0.628548,-0.04143,0.577149,0.594547,-0.046662,0.618384,0.761112,-0.015962,0.625466,0.716185,-0.041558,0.601528,0.766203,-0.038312,0.602556,0.796069,-0.028234,0.638925,0.789664,-0.021766,0.637523,0.762926,-0.048392,0.610443,0.803433,-0.034884,0.614362,0.8227,-0.01886,0.654421,0.823528,-0.028801,0.641825,0.806885,-0.046081,0.621999,0.832323,-0.038275,0.627216,0.845757,-0.028814,0,0,1
664,'2026/05/06 10:39:54:767',3,0.595588,0.900041,0,0.567136,0.861177,-0.012943,0.564191,0.794518,-0.019771,0.590301,0.745837,-0.026678,0.608172,0.706716,-0.032752,0.588634,0.740986,-0.012394,0.582966,0.673009,-0.032084,0.576976,0.627782,-0.04089,0.576679,0.592997,-0.046791,0.618508,0.760616,-0.015278,0.625687,0.717609,-0.040829,0.602,0.768601,-0.038204,0.602152,0.799213,-0.028808,0.638811,0.788951,-0.021157,0.638025,0.762788,-0.048154,0.610963,0.804035,-0.034789,0.613522,0.824207,-0.018852,0.654333,0.82257,-0.028062,0.64339,0.804876,-0.045604,0.622815,0.831228,-0.037431,0.626412,0.845656,-0.027752,0,0,1
665,'2026/05/06 10:39:54:798',3,0.595524,0.897753,0,0.567314,0.858915,-0.011833,0.56433,0.793247,-0.019016,0.590423,0.744331,-0.026484,0.607529,0.704838,-0.033302,0.587723,0.741765,-0.012386,0.582707,0.674194,-0.032062,0.57738,0.628513,-0.040261,0.577111,0.593889,-0.045588,0.618027,0.761014,-0.015604,0.62458,0.713859,-0.040589,0.600472,0.764855,-0.036721,0.600987,0.795927,-0.026308,0.63858,0.788794,-0.021742,0.637021,0.759921,-0.048239,0.610271,0.801577,-0.034418,0.613353,0.82269,-0.018232,0.654499,0.821557,-0.028763,0.642163,0.802071,-0.046271,0.622366,0.828898,-0.038317,0.626818,0.844267,-0.028849,0,0,1
666,'2026/05/06 10:39:54:831',3,0.595584,0.896753,0,0.567675,0.85944,-0.013623,0.563925,0.793369,-0.021121,0.590254,0.744796,-0.028484,0.607235,0.705738,-0.03472,0.587502,0.740227,-0.013895,0.583171,0.673141,-0.034158,0.578042,0.628694,-0.042477,0.57801,0.59422,-0.047929,0.61795,0.759188,-0.0164,0.623429,0.714059,-0.04173,0.600215,0.765878,-0.037759,0.601643,0.795386,-0.027526,0.638775,0.787114,-0.022086,0.636468,0.761079,-0.048716,0.610127,0.80325,-0.034137,0.6134,0.822503,-0.017633,0.654802,0.82017,-0.028969,0.643033,0.802984,-0.04662,0.622939,0.829769,-0.038604,0.627116,0.843095,-0.029183,0,0,1
667,'2026/05/06 10:39:54:865',3,0.595058,0.896436,0,0.567589,0.863044,-0.011309,0.562655,0.793902,-0.019321,0.590775,0.741661,-0.027707,0.607413,0.701778,-0.035475,0.588158,0.742227,-0.012508,0.582317,0.677283,-0.032696,0.578368,0.630458,-0.040199,0.577912,0.595444,-0.044387,0.617602,0.761378,-0.014929,0.623762,0.715535,-0.037082,0.59998,0.769168,-0.028124,0.601824,0.796808,-0.014133,0.636889,0.788952,-0.020695,0.637127,0.760781,-0.04671,0.610832,0.803751,-0.031264,0.613464,0.82417,-0.013779,0.653334,0.820803,-0.027084,0.643788,0.802671,-0.043868,0.623675,0.830109,-0.03548,0.626925,0.844559,-0.025871,0,0,1
668,'2026/05/06 10:39:54:909',3,0.594946,0.898442,0,0.567544,0.860307,-0.014577,0.563653,0.794554,-0.023191,0.590067,0.74584,-0.031739,0.608064,0.70677,-0.0391,0.587677,0.740373,-0.013997,0.582952,0.673309,-0.034643,0.577936,0.629057,-0.042806,0.578387,0.594515,-0.047934,0.618099,0.759399,-0.016281,0.624351,0.715342,-0.041764,0.601,0.76773,-0.037406,0.602773,0.796063,-0.026756,0.638906,0.787379,-0.02195,0.637431,0.762336,-0.049107,0.610536,0.804672,-0.034539,0.613687,0.822967,-0.017809,0.654743,0.820342,-0.028872,0.643862,0.803314,-0.046199,0.623287,0.830262,-0.037763,0.626953,0.843307,-0.028004,0,0,1
669,'2026/05/06 10:39:54:948',3,0.594946,0.898442,0,0.567544,0.860307,-0.014577,0.563653,0.794554,-0.023191,0.590067,0.74584,-0.031739,0.608064,0.70677,-0.0391,0.587677,0.740373,-0.013997,0.582952,0.673309,-0.034643,0.577936,0.629057,-0.042806,0.578387,0.594515,-0.047934,0.618099,0.759399,-0.016281,0.624351,0.715342,-0.041764,0.601,0.76773,-0.037406,0.602773,0.796063,-0.026756,0.638906,0.787379,-0.02195,0.637431,0.762336,-0.049107,0.610536,0.804672,-0.034539,0.613687,0.822967,-0.017809,0.654743,0.820342,-0.028872,0.643862,0.803314,-0.046199,0.623287,0.830262,-0.037763,0.626953,0.843307,-0.028004,0,0,1
670,'2026/05/06 10:39:54:980',3,0.595402,0.89772,0,0.567819,0.858464,-0.015698,0.563271,0.792762,-0.024654,0.588692,0.744319,-0.033328,0.60699,0.705654,-0.040808,0.58765,0.739308,-0.014957,0.582123,0.672166,-0.035884,0.577625,0.628268,-0.044511,0.578129,0.594184,-0.050035,0.617821,0.758204,-0.016908,0.623708,0.715445,-0.04315,0.600511,0.767922,-0.039786,0.601346,0.796547,-0.029864,0.639021,0.785839,-0.022234,0.636816,0.761653,-0.050063,0.609878,0.804136,-0.03596,0.612252,0.822707,-0.019433,0.654702,0.818553,-0.028934,0.643323,0.80179,-0.047508,0.622567,0.82948,-0.039532,0.625694,0.843202,-0.029775,0,0,1
671,'2026/05/06 10:39:55:011',3,0.594416,0.894514,0,0.567163,0.857758,-0.012535,0.562539,0.791855,-0.020675,0.588413,0.742941,-0.029059,0.605251,0.704316,-0.036502,0.587487,0.739767,-0.013704,0.58154,0.672492,-0.035392,0.5762,0.626858,-0.044621,0.575909,0.59242,-0.050143,0.616734,0.758876,-0.016611,0.623173,0.713529,-0.041602,0.598766,0.76446,-0.036204,0.600176,0.792457,-0.024823,0.636789,0.786622,-0.022794,0.636836,0.758583,-0.049707,0.609332,0.799886,-0.034368,0.612227,0.819583,-0.017044,0.652692,0.819651,-0.030005,0.64288,0.801697,-0.047305,0.622216,0.827829,-0.038275,0.625861,0.841903,-0.028012,0,0,1
672,'2026/05/06 10:39:55:043',3,0.594756,0.896347,0,0.567083,0.859403,-0.014706,0.562278,0.792999,-0.02369,0.588181,0.744137,-0.03263,0.606638,0.70553,-0.040553,0.586751,0.73907,-0.014229,0.58085,0.671882,-0.034985,0.575607,0.626998,-0.043497,0.57561,0.593029,-0.048828,0.616769,0.758141,-0.016797,0.624007,0.714777,-0.042896,0.599652,0.765897,-0.038986,0.60037,0.794845,-0.028278,0.637228,0.786165,-0.022704,0.636626,0.760939,-0.05038,0.609016,0.802266,-0.036307,0.61169,0.821332,-0.019562,0.65288,0.819484,-0.029803,0.64198,0.802435,-0.04763,0.621626,0.828755,-0.039299,0.625629,0.842384,-0.029316,0,0,1
673,'2026/05/06 10:39:55:074',3,0.593719,0.892594,0,0.566636,0.855587,-0.013649,0.561701,0.791396,-0.022311,0.5869,0.743585,-0.030856,0.604737,0.706098,-0.038374,0.585707,0.73718,-0.015219,0.580517,0.670474,-0.03665,0.575262,0.625892,-0.04581,0.574875,0.592172,-0.05151,0.615615,0.756155,-0.017653,0.621423,0.712672,-0.042444,0.597667,0.764157,-0.037442,0.598676,0.792091,-0.026627,0.636281,0.784436,-0.023328,0.635379,0.757516,-0.049532,0.608563,0.799517,-0.0343,0.611161,0.81911,-0.017432,0.652092,0.818109,-0.030187,0.641431,0.800659,-0.047953,0.621539,0.827462,-0.039573,0.625374,0.841682,-0.029703,0,0,1
674,'2026/05/06 10:39:55:106',3,0.594418,0.892181,0,0.56699,0.857784,-0.013276,0.562254,0.791556,-0.021403,0.588727,0.742402,-0.029356,0.60505,0.703626,-0.036318,0.586443,0.737784,-0.014894,0.580493,0.670967,-0.036269,0.575455,0.62573,-0.04517,0.575643,0.591515,-0.050708,0.616298,0.756672,-0.017432,0.622202,0.713924,-0.042116,0.597536,0.765798,-0.036097,0.598942,0.792433,-0.02456,0.636609,0.784518,-0.02334,0.636216,0.758554,-0.049846,0.608525,0.800158,-0.034155,0.610859,0.819225,-0.01696,0.652327,0.816876,-0.03041,0.642354,0.800431,-0.048518,0.621034,0.827034,-0.040263,0.623731,0.840788,-0.030528,0,0,1
675,'2026/05/06 10:39:55:146',3,0.592805,0.893787,0,0.566153,0.856106,-0.014986,0.561501,0.790987,-0.023607,0.586207,0.742607,-0.032008,0.604081,0.704134,-0.03927,0.585681,0.737026,-0.015064,0.580014,0.670544,-0.036228,0.575016,0.626451,-0.045243,0.575098,0.592785,-0.050902,0.615438,0.756072,-0.017154,0.621898,0.713824,-0.042398,0.598228,0.764767,-0.03816,0.599152,0.792664,-0.02772,0.6363,0.784635,-0.022603,0.635129,0.759905,-0.04943,0.607932,0.801242,-0.034831,0.610465,0.819806,-0.018081,0.652074,0.81844,-0.029369,0.641585,0.801816,-0.047348,0.621227,0.827773,-0.039068,0.624919,0.841173,-0.029124,0,0,1
676,'2026/05/06 10:39:55:194',3,0.593187,0.892147,0,0.565657,0.857774,-0.012506,0.56132,0.791631,-0.019905,0.586532,0.743009,-0.02699,0.603409,0.703656,-0.033071,0.586273,0.737658,-0.01578,0.581017,0.670588,-0.037077,0.575786,0.625799,-0.04627,0.574946,0.591687,-0.051975,0.615908,0.756691,-0.017863,0.621975,0.713056,-0.042111,0.598032,0.766175,-0.036014,0.598482,0.794872,-0.024342,0.636018,0.784595,-0.023033,0.635651,0.757832,-0.050476,0.608993,0.801375,-0.03606,0.6115,0.821172,-0.019363,0.652485,0.817322,-0.028949,0.641489,0.801312,-0.048448,0.621257,0.829201,-0.041149,0.625001,0.843119,-0.031933,0,0,1
677,'2026/05/06 10:39:55:231',3,0.593903,0.891628,0,0.565978,0.85555,-0.016261,0.560166,0.790192,-0.024944,0.585014,0.741286,-0.033164,0.602865,0.702349,-0.040271,0.584876,0.736997,-0.015558,0.57902,0.670032,-0.036085,0.574756,0.626533,-0.044629,0.575249,0.592994,-0.050146,0.614698,0.755029,-0.017063,0.620834,0.712994,-0.043055,0.59852,0.765003,-0.039986,0.598692,0.793133,-0.030279,0.635907,0.781955,-0.021852,0.634223,0.758378,-0.049793,0.608086,0.801762,-0.036324,0.609446,0.820601,-0.020108,0.651859,0.814192,-0.027993,0.640913,0.797277,-0.047449,0.620755,0.825761,-0.040139,0.623406,0.839903,-0.030628,0,0,1
678,'2026/05/06 10:40:25:627',4,0.630901,0.907543,0,0.593828,0.868668,-0.026205,0.577539,0.811752,-0.040152,0.608592,0.77187,-0.053342,0.642192,0.745443,-0.064318,0.601977,0.724556,-0.018853,0.583171,0.658483,-0.038122,0.57162,0.614724,-0.052346,0.566397,0.578731,-0.060578,0.637689,0.732049,-0.018313,0.664771,0.662372,-0.034213,0.686123,0.618101,-0.043581,0.705019,0.585748,-0.048262,0.663515,0.758411,-0.021297,0.671815,0.738357,-0.046189,0.649839,0.77506,-0.048115,0.634638,0.807827,-0.041759,0.683022,0.795955,-0.026561,0.685033,0.775305,-0.043611,0.664381,0.797521,-0.038484,0.649326,0.821953,-0.029947,1,1,0
679,'2026/05/06 10:40:25:664',4,0.63102,0.905143,0,0.594457,0.867726,-0.026353,0.577928,0.811395,-0.040498,0.608632,0.772598,-0.053728,0.642148,0.747711,-0.064833,0.601126,0.724251,-0.020606,0.582568,0.657967,-0.039928,0.571099,0.613916,-0.054038,0.566287,0.578436,-0.062328,0.636921,0.731639,-0.02003,0.663805,0.663972,-0.036041,0.685232,0.619686,-0.045466,0.704321,0.586552,-0.050267,0.662709,0.7578,-0.022761,0.672725,0.738482,-0.047655,0.65023,0.775353,-0.049188,0.634526,0.807485,-0.042655,0.681959,0.795378,-0.027725,0.68533,0.776006,-0.045489,0.664912,0.798211,-0.04043,0.649863,0.821743,-0.031793,1,1,0
680,'2026/05/06 10:40:25:689',4,0.630593,0.904264,0,0.5941,0.866779,-0.02628,0.577165,0.811722,-0.040267,0.607814,0.773001,-0.05342,0.641851,0.74779,-0.064213,0.601556,0.723304,-0.019174,0.582389,0.65771,-0.037826,0.570736,0.614215,-0.051644,0.56549,0.579091,-0.059712,0.637747,0.730642,-0.018315,0.664694,0.662807,-0.033194,0.685834,0.618321,-0.04219,0.704469,0.586134,-0.046875,0.663433,0.757287,-0.020935,0.672351,0.737481,-0.044471,0.650542,0.77198,-0.046584,0.635184,0.803866,-0.040804,0.682511,0.795215,-0.025896,0.685398,0.776241,-0.04248,0.664803,0.795452,-0.038094,0.649023,0.817843,-0.030245,1,1,0
681,'2026/05/06 10:40:25:721',4,0.631834,0.904472,0,0.594926,0.865766,-0.026349,0.578879,0.809309,-0.04011,0.609394,0.770146,-0.052982,0.642418,0.743668,-0.063674,0.601342,0.722093,-0.019614,0.582312,0.657097,-0.038505,0.571437,0.613866,-0.05221,0.566586,0.578916,-0.060075,0.637705,0.729188,-0.019013,0.66466,0.662166,-0.034577,0.685804,0.618104,-0.043674,0.704553,0.585934,-0.047962,0.663573,0.755472,-0.021858,0.67189,0.737377,-0.046409,0.649286,0.772896,-0.048381,0.634101,0.80461,-0.042001,0.682568,0.792787,-0.026969,0.686048,0.77467,-0.044327,0.665257,0.795377,-0.039556,0.650094,0.818379,-0.031031,1,1,0
682,'2026/05/06 10:40:25:751',4,0.631834,0.904472,0,0.594926,0.865766,-0.026349,0.578879,0.809309,-0.04011,0.609394,0.770146,-0.052982,0.642418,0.743668,-0.063674,0.601342,0.722093,-0.019614,0.582312,0.657097,-0.038505,0.571437,0.613866,-0.05221,0.566586,0.578916,-0.060075,0.637705,0.729188,-0.019013,0.66466,0.662166,-0.034577,0.685804,0.618104,-0.043674,0.704553,0.585934,-0.047962,0.663573,0.755472,-0.021858,0.67189,0.737377,-0.046409,0.649286,0.772896,-0.048381,0.634101,0.80461,-0.042001,0.682568,0.792787,-0.026969,0.686048,0.77467,-0.044327,0.665257,0.795377,-0.039556,0.650094,0.818379,-0.031031,1,1,0
683,'2026/05/06 10:40:25:784',4,0.631813,0.903405,0,0.594462,0.866901,-0.027764,0.578002,0.811096,-0.042005,0.609514,0.77143,-0.054968,0.643461,0.743965,-0.065517,0.601057,0.721735,-0.02062,0.581994,0.656995,-0.039117,0.571026,0.613887,-0.052436,0.566611,0.578333,-0.06023,0.637552,0.728529,-0.019229,0.664761,0.661914,-0.034341,0.685608,0.618399,-0.043122,0.704669,0.586348,-0.047459,0.663202,0.754893,-0.021348,0.672528,0.737744,-0.045605,0.649457,0.773516,-0.047307,0.634083,0.805186,-0.040978,0.681692,0.792512,-0.025893,0.68424,0.775108,-0.043391,0.663211,0.796594,-0.038874,0.648223,0.820015,-0.030649,1,1,0
684,'2026/05/06 10:40:25:814',4,0.63248,0.90354,0,0.59467,0.86694,-0.027965,0.578144,0.810283,-0.042422,0.609426,0.769738,-0.055502,0.642993,0.742939,-0.066208,0.601082,0.721057,-0.021498,0.582504,0.654088,-0.040174,0.571414,0.609566,-0.053765,0.567409,0.573576,-0.062022,0.637623,0.728528,-0.019929,0.664044,0.662124,-0.035546,0.686191,0.618868,-0.044509,0.705694,0.586574,-0.049031,0.663402,0.754769,-0.021844,0.673462,0.735349,-0.046851,0.650858,0.77258,-0.048523,0.634518,0.805206,-0.042104,0.682676,0.792281,-0.026098,0.686897,0.773909,-0.045169,0.665621,0.79533,-0.041221,0.649104,0.817965,-0.033148,1,1,0
685,'2026/05/06 10:40:25:851',4,0.630404,0.901843,0,0.594157,0.864538,-0.026951,0.578483,0.808215,-0.041178,0.609281,0.769053,-0.054314,0.64309,0.744146,-0.065233,0.601966,0.722383,-0.021411,0.583274,0.655416,-0.040597,0.571708,0.611068,-0.054389,0.567026,0.575375,-0.06248,0.638025,0.730144,-0.02035,0.665318,0.663328,-0.036104,0.686392,0.619025,-0.045149,0.704999,0.586202,-0.049666,0.663993,0.756465,-0.022594,0.673638,0.736512,-0.047345,0.650068,0.772255,-0.048692,0.634002,0.80388,-0.042009,0.683285,0.794029,-0.02709,0.686627,0.773967,-0.045028,0.665123,0.794726,-0.04006,0.64937,0.817353,-0.031398,1,1,0
686,'2026/05/06 10:40:25:884',4,0.631377,0.903296,0,0.594164,0.864647,-0.026154,0.578022,0.808208,-0.040153,0.609034,0.769207,-0.053334,0.642537,0.743048,-0.064313,0.601368,0.720582,-0.019637,0.583121,0.655611,-0.038601,0.572565,0.612103,-0.052355,0.568136,0.576989,-0.06037,0.637885,0.727598,-0.019168,0.665091,0.661475,-0.034861,0.686524,0.617724,-0.044132,0.705823,0.585728,-0.048738,0.663886,0.754192,-0.022075,0.671463,0.736138,-0.046823,0.647588,0.772016,-0.048486,0.631636,0.804338,-0.04201,0.682862,0.792071,-0.027238,0.685928,0.773203,-0.044935,0.664048,0.79458,-0.04004,0.648144,0.818666,-0.031454,1,1,0
687,'2026/05/06 10:40:25:921',4,0.63144,0.904289,0,0.593768,0.867349,-0.027569,0.578229,0.809049,-0.041874,0.609419,0.767735,-0.05488,0.643861,0.741171,-0.065618,0.600543,0.721474,-0.021595,0.582388,0.654794,-0.040522,0.571248,0.610397,-0.054132,0.567124,0.574724,-0.062342,0.637623,0.729291,-0.020459,0.664774,0.66213,-0.036041,0.686459,0.618426,-0.044871,0.705702,0.585748,-0.049178,0.663908,0.756174,-0.022719,0.672747,0.73436,-0.047643,0.649512,0.77131,-0.048916,0.633905,0.803908,-0.042198,0.683023,0.794207,-0.027275,0.6867,0.772982,-0.046296,0.665207,0.794166,-0.041804,0.649559,0.817327,-0.033296,1,1,0
688,'2026/05/06 10:40:25:953',4,0.631463,0.901277,0,0.594107,0.865339,-0.027636,0.57702,0.810031,-0.042499,0.607222,0.770462,-0.056175,0.641,0.744483,-0.067578,0.6005,0.720382,-0.022056,0.581638,0.654608,-0.041341,0.570822,0.610508,-0.055371,0.566505,0.575449,-0.063803,0.637235,0.727394,-0.020994,0.664088,0.661789,-0.036915,0.685637,0.618125,-0.046104,0.705204,0.585656,-0.050689,0.663222,0.754252,-0.023305,0.672062,0.734716,-0.048299,0.647476,0.771258,-0.049562,0.631243,0.803596,-0.042816,0.682345,0.792694,-0.027973,0.685847,0.773087,-0.046833,0.663732,0.794013,-0.042383,0.647704,0.81738,-0.033878,1,1,0
689,'2026/05/06 10:40:25:986',4,0.629956,0.902639,0,0.592906,0.865128,-0.028436,0.577037,0.808571,-0.043639,0.607023,0.768122,-0.057492,0.640579,0.740223,-0.068997,0.600018,0.720667,-0.022153,0.581359,0.654573,-0.041523,0.570525,0.61054,-0.055467,0.566743,0.575495,-0.063744,0.63676,0.728444,-0.020668,0.663869,0.662312,-0.036585,0.68564,0.618992,-0.045727,0.705279,0.586976,-0.050164,0.662681,0.75534,-0.022675,0.671214,0.733869,-0.047669,0.647632,0.77021,-0.04911,0.631971,0.802646,-0.042431,0.681867,0.793265,-0.027079,0.685028,0.772818,-0.045648,0.663956,0.794167,-0.041122,0.649069,0.817859,-0.032534,1,1,0
690,'2026/05/06 10:40:26:015',4,0.629943,0.902451,0,0.592666,0.864955,-0.026773,0.57678,0.808575,-0.040631,0.607978,0.768734,-0.05346,0.641533,0.741354,-0.064012,0.600251,0.721087,-0.019279,0.581754,0.655942,-0.037612,0.571166,0.612773,-0.051082,0.566863,0.577606,-0.059064,0.636652,0.728102,-0.018277,0.663615,0.661426,-0.033172,0.685001,0.618557,-0.042231,0.704327,0.586683,-0.046897,0.66242,0.754493,-0.020721,0.671134,0.733855,-0.044902,0.648667,0.770044,-0.046793,0.633392,0.802461,-0.040729,0.681346,0.792184,-0.02548,0.684333,0.772654,-0.043214,0.663236,0.793689,-0.038878,0.647471,0.8171,-0.030815,1,1,0
691,'2026/05/06 10:40:26:055',4,0.627859,0.900496,0,0.591338,0.863193,-0.02689,0.575509,0.807686,-0.04116,0.607166,0.769204,-0.054329,0.641362,0.743352,-0.065289,0.599961,0.720985,-0.020418,0.58139,0.656379,-0.039286,0.570527,0.613305,-0.053164,0.566173,0.577973,-0.061499,0.635976,0.728473,-0.019585,0.663611,0.662206,-0.0347,0.684967,0.61925,-0.043731,0.704427,0.587219,-0.048554,0.661228,0.755486,-0.022153,0.670716,0.735009,-0.046144,0.647835,0.770367,-0.047515,0.632591,0.801772,-0.041392,0.679307,0.794051,-0.027096,0.682186,0.774889,-0.044754,0.66062,0.79621,-0.040093,0.645301,0.819401,-0.031964,1,1,0
692,'2026/05/06 10:40:26:097',4,0.629332,0.90106,0,0.590725,0.865584,-0.026083,0.575444,0.808595,-0.040017,0.606801,0.768942,-0.052544,0.64034,0.744196,-0.062898,0.598823,0.72141,-0.022746,0.580618,0.655631,-0.041142,0.569517,0.611338,-0.054524,0.565039,0.575729,-0.062984,0.635655,0.728664,-0.022113,0.662391,0.661902,-0.037049,0.684384,0.619425,-0.045954,0.704235,0.587244,-0.051066,0.661415,0.755095,-0.024465,0.671373,0.733686,-0.04766,0.649326,0.768897,-0.048676,0.633433,0.799274,-0.043013,0.680328,0.792853,-0.029089,0.683924,0.774627,-0.04763,0.662874,0.79599,-0.043803,0.646743,0.81778,-0.036397,1,1,0
693,'2026/05/06 10:40:26:124',4,0.627561,0.900512,0,0.590751,0.864422,-0.026644,0.574312,0.809846,-0.041248,0.60443,0.771531,-0.054817,0.637174,0.745363,-0.066187,0.599132,0.721301,-0.021468,0.58014,0.656949,-0.040725,0.569244,0.613461,-0.054626,0.564918,0.577961,-0.062932,0.635404,0.728246,-0.02082,0.662377,0.661888,-0.036482,0.683656,0.619348,-0.045417,0.702646,0.587946,-0.050007,0.661123,0.754585,-0.023503,0.669712,0.735486,-0.04789,0.646771,0.771205,-0.049411,0.631084,0.802891,-0.043239,0.68002,0.792598,-0.028494,0.681459,0.775243,-0.046237,0.659839,0.796891,-0.04178,0.644328,0.820192,-0.033721,1,1,0
694,'2026/05/06 10:40:26:152',4,0.627561,0.900512,0,0.590751,0.864422,-0.026644,0.574312,0.809846,-0.041248,0.60443,0.771531,-0.054817,0.637174,0.745363,-0.066187,0.599132,0.721301,-0.021468,0.58014,0.656949,-0.040725,0.569244,0.613461,-0.054626,0.564918,0.577961,-0.062932,0.635404,0.728246,-0.02082,0.662377,0.661888,-0.036482,0.683656,0.619348,-0.045417,0.702646,0.587946,-0.050007,0.661123,0.754585,-0.023503,0.669712,0.735486,-0.04789,0.646771,0.771205,-0.049411,0.631084,0.802891,-0.043239,0.68002,0.792598,-0.028494,0.681459,0.775243,-0.046237,0.659839,0.796891,-0.04178,0.644328,0.820192,-0.033721,1,1,0
695,'2026/05/06 10:40:26:186',4,0.6278,0.903223,0,0.591428,0.864196,-0.024771,0.575297,0.808085,-0.03855,0.606077,0.769846,-0.051781,0.640561,0.746465,-0.062907,0.599202,0.72217,-0.019057,0.580304,0.657898,-0.037526,0.56944,0.614288,-0.05109,0.565077,0.578886,-0.059221,0.634832,0.729898,-0.01922,0.661621,0.663773,-0.034554,0.683106,0.620141,-0.043594,0.701901,0.588576,-0.048363,0.660173,0.756731,-0.022613,0.668143,0.73627,-0.047016,0.645662,0.771696,-0.048763,0.629863,0.80403,-0.04265,0.678985,0.795071,-0.028089,0.681602,0.774294,-0.045332,0.660203,0.795075,-0.040387,0.643995,0.818833,-0.032073,1,1,0
696,'2026/05/06 10:40:26:230',4,0.626766,0.902208,0,0.588786,0.865119,-0.025397,0.572796,0.809231,-0.03941,0.603177,0.770904,-0.052559,0.636218,0.745812,-0.063605,0.597043,0.721348,-0.020392,0.578823,0.656563,-0.03933,0.568096,0.61283,-0.053353,0.563685,0.57785,-0.061943,0.633568,0.728614,-0.020374,0.660026,0.662931,-0.035971,0.681719,0.619953,-0.045451,0.701556,0.587805,-0.050574,0.659155,0.755008,-0.023528,0.667883,0.734581,-0.047587,0.644748,0.769676,-0.049089,0.628627,0.801108,-0.043165,0.677963,0.792711,-0.028908,0.680508,0.774131,-0.047028,0.658798,0.795188,-0.042799,0.642542,0.818079,-0.034917,1,1,0
697,'2026/05/06 10:40:26:266',4,0.626325,0.901192,0,0.588696,0.864491,-0.024919,0.574184,0.807626,-0.038418,0.604865,0.768044,-0.050999,0.63688,0.74101,-0.06158,0.596149,0.720689,-0.02083,0.578314,0.655723,-0.039705,0.567351,0.612,-0.053408,0.562682,0.577104,-0.061788,0.632656,0.728343,-0.020947,0.660189,0.662657,-0.036308,0.681923,0.620119,-0.045496,0.701472,0.58815,-0.050414,0.658216,0.755302,-0.024043,0.668299,0.734167,-0.047586,0.645333,0.769551,-0.048331,0.629417,0.800673,-0.042077,0.676664,0.793481,-0.029326,0.678839,0.775569,-0.047367,0.657529,0.797218,-0.042753,0.64224,0.820017,-0.034571,1,1,0
698,'2026/05/06 10:40:26:303',4,0.624735,0.902972,0,0.587244,0.863222,-0.024858,0.572938,0.805879,-0.037926,0.604226,0.766913,-0.050252,0.637298,0.741946,-0.060527,0.596483,0.721881,-0.017802,0.578481,0.658133,-0.036386,0.568215,0.61492,-0.050117,0.563798,0.579846,-0.058243,0.632631,0.729075,-0.017814,0.66022,0.661865,-0.032891,0.6819,0.619274,-0.041826,0.701422,0.588035,-0.046363,0.65824,0.755781,-0.021148,0.666811,0.735126,-0.045105,0.643312,0.769818,-0.046111,0.62707,0.80083,-0.039537,0.676794,0.793393,-0.026678,0.678418,0.774207,-0.043945,0.656971,0.796211,-0.038693,0.641631,0.819973,-0.030053,1,1,0
699,'2026/05/06 10:40:26:330',4,0.625335,0.901471,0,0.587211,0.865531,-0.025513,0.571589,0.809136,-0.039136,0.602264,0.770437,-0.051611,0.635367,0.746047,-0.061883,0.595715,0.721481,-0.020448,0.577138,0.656449,-0.039026,0.566348,0.612327,-0.052872,0.561977,0.576972,-0.061576,0.632046,0.728613,-0.020142,0.658032,0.662448,-0.035264,0.679851,0.620097,-0.044222,0.699945,0.587908,-0.049205,0.657449,0.755053,-0.022971,0.667393,0.733532,-0.046479,0.64428,0.7692,-0.046783,0.627733,0.799956,-0.040357,0.675807,0.792828,-0.028105,0.679325,0.774476,-0.047011,0.657819,0.796674,-0.042689,0.641567,0.819127,-0.034675,1,1,0
700,'2026/05/06 10:40:26:360',4,0.623905,0.900583,0,0.586942,0.864383,-0.025065,0.572343,0.80829,-0.038785,0.602377,0.770728,-0.051537,0.635042,0.74663,-0.062281,0.594922,0.721807,-0.020963,0.57699,0.65743,-0.039653,0.56709,0.613724,-0.053124,0.563305,0.57849,-0.061342,0.631553,0.729226,-0.021157,0.659179,0.662789,-0.036389,0.680855,0.620134,-0.045168,0.700566,0.588442,-0.049695,0.657522,0.755991,-0.024378,0.666124,0.733758,-0.048001,0.64244,0.768492,-0.048459,0.626637,0.798947,-0.04187,0.676304,0.79377,-0.029785,0.677842,0.773656,-0.047658,0.656268,0.796484,-0.042552,0.64177,0.82056,-0.033989,1,1,0
701,'2026/05/06 10:40:26:391',4,0.623879,0.901656,0,0.586231,0.865891,-0.02525,0.571479,0.809226,-0.039262,0.601779,0.770633,-0.052121,0.634508,0.745631,-0.062891,0.594757,0.723453,-0.022313,0.577111,0.657954,-0.041282,0.566419,0.61329,-0.054908,0.562041,0.577622,-0.063311,0.631044,0.730888,-0.022288,0.658016,0.664563,-0.037957,0.679849,0.621449,-0.046926,0.699705,0.588944,-0.051744,0.656696,0.757076,-0.025151,0.666191,0.734343,-0.048986,0.642807,0.77025,-0.048942,0.626467,0.801351,-0.042136,0.675318,0.794438,-0.030203,0.678798,0.773146,-0.048896,0.657248,0.79633,-0.04379,0.641512,0.820198,-0.035151,1,1,0
702,'2026/05/06 10:40:26:423',4,0.624138,0.901801,0,0.586504,0.865192,-0.025335,0.571847,0.808754,-0.039186,0.602652,0.770284,-0.051982,0.635654,0.745496,-0.062698,0.595035,0.722251,-0.021486,0.576722,0.657353,-0.040586,0.566049,0.61334,-0.054251,0.561641,0.578111,-0.062443,0.631413,0.729808,-0.021536,0.658397,0.663611,-0.037484,0.680043,0.620707,-0.046492,0.699601,0.588389,-0.051007,0.657035,0.756456,-0.024604,0.666386,0.736233,-0.049344,0.642099,0.772711,-0.049717,0.625212,0.803673,-0.042645,0.675626,0.794471,-0.029791,0.679203,0.774775,-0.048477,0.656984,0.797217,-0.043166,0.640305,0.81993,-0.034215,1,1,0
703,'2026/05/06 10:40:26:453',4,0.623374,0.90654,0,0.586765,0.865941,-0.02459,0.57196,0.808967,-0.038167,0.60261,0.771632,-0.051287,0.636611,0.748162,-0.062293,0.595122,0.723631,-0.017882,0.576966,0.658936,-0.036787,0.566658,0.615185,-0.050633,0.562233,0.580195,-0.058682,0.631435,0.731373,-0.018273,0.658986,0.66413,-0.03379,0.680983,0.620688,-0.043026,0.700732,0.589253,-0.047708,0.65738,0.758514,-0.022019,0.663463,0.739992,-0.0465,0.639406,0.774709,-0.048134,0.623257,0.806223,-0.041746,0.676169,0.796422,-0.027915,0.677012,0.777112,-0.044825,0.655517,0.798942,-0.039574,0.640378,0.82334,-0.030989,1,1,0
704,'2026/05/06 10:40:26:492',4,0.625117,0.901085,0,0.58636,0.867607,-0.02736,0.570513,0.81236,-0.041735,0.601429,0.773993,-0.054454,0.633808,0.747676,-0.064783,0.593587,0.722426,-0.023154,0.575872,0.657237,-0.041784,0.566989,0.612977,-0.054948,0.56389,0.577181,-0.063175,0.630889,0.729358,-0.022156,0.658557,0.663516,-0.037947,0.680983,0.621023,-0.046789,0.70122,0.58865,-0.051277,0.656555,0.755733,-0.024338,0.665832,0.73706,-0.048229,0.641886,0.772715,-0.048672,0.625388,0.802813,-0.042023,0.675126,0.79332,-0.028946,0.677717,0.778167,-0.047793,0.656221,0.799381,-0.043762,0.640575,0.820234,-0.035829,1,1,0
705,'2026/05/06 10:40:26:535',4,0.623198,0.904805,0,0.58617,0.867591,-0.025004,0.57093,0.812224,-0.038582,0.602114,0.775464,-0.051257,0.634879,0.750225,-0.061802,0.594437,0.722862,-0.020213,0.575851,0.658311,-0.038271,0.566174,0.614046,-0.051425,0.562455,0.578359,-0.059494,0.631485,0.729744,-0.020411,0.658674,0.664218,-0.035213,0.680608,0.621229,-0.044095,0.700427,0.589354,-0.048808,0.657245,0.756265,-0.023675,0.665878,0.739298,-0.046588,0.642678,0.773908,-0.04767,0.62666,0.804584,-0.041686,0.675649,0.793948,-0.029232,0.677327,0.778052,-0.046354,0.655676,0.799745,-0.041739,0.640058,0.822943,-0.033742,1,1,0
706,'2026/05/06 10:40:26:562',4,0.623198,0.904805,0,0.58617,0.867591,-0.025004,0.57093,0.812224,-0.038582,0.602114,0.775464,-0.051257,0.634879,0.750225,-0.061802,0.594437,0.722862,-0.020213,0.575851,0.658311,-0.038271,0.566174,0.614046,-0.051425,0.562455,0.578359,-0.059494,0.631485,0.729744,-0.020411,0.658674,0.664218,-0.035213,0.680608,0.621229,-0.044095,0.700427,0.589354,-0.048808,0.657245,0.756265,-0.023675,0.665878,0.739298,-0.046588,0.642678,0.773908,-0.04767,0.62666,0.804584,-0.041686,0.675649,0.793948,-0.029232,0.677327,0.778052,-0.046354,0.655676,0.799745,-0.041739,0.640058,0.822943,-0.033742,1,1,0
707,'2026/05/06 10:40:26:595',4,0.623374,0.90496,0,0.586837,0.867707,-0.025449,0.571983,0.811289,-0.039134,0.602875,0.772943,-0.051899,0.634693,0.745868,-0.062473,0.594522,0.723971,-0.020136,0.575819,0.658863,-0.03803,0.566853,0.615079,-0.05063,0.56369,0.579168,-0.058372,0.631625,0.730849,-0.020253,0.659374,0.664424,-0.035847,0.68143,0.621711,-0.045135,0.701786,0.58956,-0.049936,0.657124,0.75755,-0.023452,0.664657,0.738452,-0.047604,0.639944,0.772802,-0.048942,0.623672,0.80274,-0.042749,0.675246,0.795235,-0.028893,0.677083,0.778207,-0.047066,0.655104,0.800009,-0.042847,0.639448,0.823001,-0.034895,1,1,0
708,'2026/05/06 10:40:26:625',4,0.625191,0.904301,0,0.587028,0.868329,-0.026444,0.570781,0.812977,-0.040544,0.600632,0.773209,-0.05339,0.633165,0.746614,-0.06392,0.593693,0.724022,-0.021045,0.575633,0.659159,-0.039614,0.566092,0.615107,-0.053062,0.562587,0.579063,-0.061424,0.630739,0.730458,-0.020495,0.657779,0.664587,-0.035978,0.67999,0.621866,-0.045059,0.7003,0.589394,-0.049787,0.656552,0.756638,-0.023141,0.66574,0.737634,-0.046902,0.64217,0.77262,-0.047659,0.625441,0.802883,-0.041253,0.675168,0.793947,-0.028188,0.677682,0.778588,-0.046784,0.655975,0.800123,-0.042672,0.639662,0.822143,-0.034686,1,1,0
709,'2026/05/06 10:40:26:655',4,0.62332,0.904784,0,0.585776,0.867407,-0.025265,0.571414,0.810516,-0.038705,0.602379,0.77186,-0.051215,0.633884,0.744697,-0.061566,0.593592,0.724893,-0.020131,0.575658,0.659685,-0.038537,0.566169,0.615798,-0.051745,0.562823,0.579949,-0.059834,0.630366,0.732028,-0.020082,0.658078,0.665888,-0.035608,0.680369,0.623024,-0.044616,0.701041,0.590917,-0.049316,0.656182,0.758415,-0.023139,0.665199,0.738426,-0.046826,0.640703,0.772633,-0.047256,0.624069,0.803055,-0.040625,0.674782,0.795669,-0.028522,0.676456,0.778504,-0.046452,0.654609,0.800163,-0.041715,0.639172,0.823341,-0.033434,1,1,0
710,'2026/05/06 10:40:26:685',4,0.623632,0.906581,0,0.586051,0.868496,-0.02529,0.571721,0.811369,-0.038782,0.603366,0.773581,-0.051403,0.636655,0.748889,-0.061888,0.593066,0.725185,-0.019645,0.575388,0.660208,-0.037847,0.566052,0.616262,-0.050986,0.562793,0.580707,-0.059061,0.629913,0.73309,-0.019677,0.65793,0.666857,-0.035095,0.68013,0.623082,-0.044196,0.700599,0.59047,-0.048955,0.655819,0.760381,-0.022864,0.665245,0.73931,-0.046578,0.64074,0.772991,-0.047232,0.624235,0.803057,-0.040708,0.674509,0.798232,-0.028335,0.676755,0.779317,-0.04614,0.654653,0.800214,-0.041375,0.639111,0.822624,-0.033105,1,1,0
711,'2026/05/06 10:40:26:717',4,0.624005,0.907376,0,0.585756,0.869214,-0.026344,0.570572,0.813009,-0.040658,0.601046,0.774772,-0.054,0.63409,0.748684,-0.065121,0.593596,0.725342,-0.019954,0.575819,0.660963,-0.038461,0.566611,0.61712,-0.05165,0.563721,0.581457,-0.059635,0.630543,0.732474,-0.019767,0.658195,0.666223,-0.035606,0.680288,0.622647,-0.044928,0.700386,0.590254,-0.049667,0.656405,0.75899,-0.022922,0.664177,0.738588,-0.047723,0.640208,0.774158,-0.049157,0.624144,0.805263,-0.042837,0.675279,0.796442,-0.028383,0.676691,0.777902,-0.046932,0.654355,0.801617,-0.042507,0.638432,0.826224,-0.034292,1,1,0
712,'2026/05/06 10:40:26:748',4,0.622835,0.908525,0,0.585774,0.868546,-0.025026,0.570365,0.811781,-0.038716,0.601699,0.775293,-0.051781,0.635613,0.75249,-0.062734,0.594778,0.726052,-0.018928,0.5765,0.662173,-0.038234,0.565412,0.618529,-0.052351,0.560439,0.583929,-0.060578,0.630943,0.734226,-0.019108,0.657744,0.667641,-0.034887,0.679447,0.62354,-0.04409,0.699116,0.591768,-0.048815,0.656764,0.761751,-0.022614,0.663221,0.74358,-0.047197,0.638953,0.779053,-0.048216,0.622554,0.810867,-0.04149,0.675314,0.800326,-0.02834,0.675319,0.781481,-0.045765,0.653557,0.803764,-0.040356,0.638669,0.828048,-0.031576,1,1,0
713,'2026/05/06 10:40:26:779',4,0.62406,0.911128,0,0.585748,0.871489,-0.025169,0.569403,0.814239,-0.038697,0.60056,0.776068,-0.051627,0.63395,0.75126,-0.062396,0.595149,0.727125,-0.018286,0.57677,0.663021,-0.036922,0.565688,0.619387,-0.050677,0.561106,0.583693,-0.058829,0.631242,0.734604,-0.018367,0.658202,0.667242,-0.033675,0.68008,0.623329,-0.042753,0.699971,0.591422,-0.04747,0.656632,0.761384,-0.021868,0.663792,0.742731,-0.04636,0.641087,0.779393,-0.048093,0.625429,0.812593,-0.041868,0.675116,0.79939,-0.027599,0.675701,0.78142,-0.045016,0.654891,0.804103,-0.040272,0.639946,0.828982,-0.032033,1,1,0
714,'2026/05/06 10:40:26:812',4,0.623409,0.910744,0,0.585562,0.870542,-0.025688,0.570548,0.81283,-0.039252,0.601496,0.774696,-0.051972,0.633804,0.748719,-0.062455,0.593632,0.726728,-0.019174,0.575934,0.662041,-0.037724,0.566087,0.617975,-0.051154,0.562058,0.582061,-0.059113,0.63043,0.734049,-0.019067,0.658626,0.666715,-0.034406,0.680997,0.622909,-0.04335,0.701509,0.591194,-0.047827,0.656383,0.761146,-0.022337,0.662699,0.742953,-0.046441,0.638483,0.777453,-0.04777,0.62277,0.80879,-0.041311,0.675164,0.798938,-0.02792,0.6753,0.781531,-0.045137,0.653998,0.803192,-0.040255,0.63989,0.827232,-0.03188,1,1,0
715,'2026/05/06 10:40:26:840',4,0.623051,0.909305,0,0.585899,0.87126,-0.025918,0.569384,0.816048,-0.040377,0.599869,0.777802,-0.054159,0.633721,0.752067,-0.065857,0.593758,0.726783,-0.020687,0.575602,0.66239,-0.040396,0.565119,0.618754,-0.054473,0.56062,0.583138,-0.062537,0.630457,0.734519,-0.02057,0.658209,0.666518,-0.03693,0.680146,0.622579,-0.046264,0.699627,0.590875,-0.050941,0.656339,0.761648,-0.023845,0.662294,0.743047,-0.049298,0.639336,0.779444,-0.0514,0.623939,0.811787,-0.04514,0.675035,0.80007,-0.029281,0.676121,0.780686,-0.046733,0.654948,0.80291,-0.041854,0.63966,0.827163,-0.033474,1,1,0
716,'2026/05/06 10:40:26:870',4,0.623188,0.910584,0,0.586056,0.872334,-0.025929,0.569892,0.816078,-0.039897,0.600689,0.777002,-0.053117,0.633772,0.750453,-0.064177,0.594561,0.72765,-0.019586,0.575656,0.662481,-0.038878,0.564813,0.618442,-0.052886,0.560099,0.582449,-0.060952,0.630459,0.735244,-0.019296,0.657401,0.667116,-0.035178,0.679329,0.62267,-0.044201,0.698722,0.590217,-0.048575,0.655949,0.762211,-0.022462,0.663194,0.744371,-0.047641,0.640208,0.781445,-0.049474,0.624473,0.81424,-0.042941,0.674669,0.800716,-0.027848,0.676484,0.782338,-0.045611,0.654526,0.805128,-0.04075,0.638557,0.829587,-0.032229,1,1,0
717,'2026/05/06 10:40:26:915',4,0.623712,0.912526,0,0.5863,0.872965,-0.025466,0.570615,0.815901,-0.039009,0.601503,0.777175,-0.051923,0.63371,0.748852,-0.062711,0.594119,0.726074,-0.018798,0.575779,0.661913,-0.038193,0.56493,0.618695,-0.052186,0.559957,0.583024,-0.060065,0.630616,0.734162,-0.018873,0.658812,0.665853,-0.034755,0.680735,0.621878,-0.043817,0.700081,0.589691,-0.048152,0.656109,0.761665,-0.022457,0.664381,0.745257,-0.047874,0.641204,0.78329,-0.049793,0.625404,0.815787,-0.043181,0.6745,0.800227,-0.028181,0.676954,0.783061,-0.045633,0.655522,0.806613,-0.040444,0.6403,0.830805,-0.031707,1,1,0
718,'2026/05/06 10:40:26:949',4,0.623712,0.912526,0,0.5863,0.872965,-0.025466,0.570615,0.815901,-0.039009,0.601503,0.777175,-0.051923,0.63371,0.748852,-0.062711,0.594119,0.726074,-0.018798,0.575779,0.661913,-0.038193,0.56493,0.618695,-0.052186,0.559957,0.583024,-0.060065,0.630616,0.734162,-0.018873,0.658812,0.665853,-0.034755,0.680735,0.621878,-0.043817,0.700081,0.589691,-0.048152,0.656109,0.761665,-0.022457,0.664381,0.745257,-0.047874,0.641204,0.78329,-0.049793,0.625404,0.815787,-0.043181,0.6745,0.800227,-0.028181,0.676954,0.783061,-0.045633,0.655522,0.806613,-0.040444,0.6403,0.830805,-0.031707,1,1,0
719,'2026/05/06 10:40:26:972',4,0.623326,0.912492,0,0.586646,0.87383,-0.026058,0.569658,0.818005,-0.040253,0.599252,0.779468,-0.05381,0.630956,0.75178,-0.065185,0.594539,0.728273,-0.019607,0.576595,0.662517,-0.039622,0.565892,0.618643,-0.054305,0.561068,0.58238,-0.062858,0.630645,0.735292,-0.019354,0.658065,0.667014,-0.036271,0.679972,0.623078,-0.046206,0.699534,0.590233,-0.051181,0.656383,0.761605,-0.022589,0.663875,0.744,-0.048329,0.641267,0.781861,-0.050407,0.625833,0.814465,-0.043998,0.675616,0.799558,-0.028073,0.676565,0.782617,-0.045746,0.655594,0.805317,-0.04096,0.640557,0.829021,-0.032545,1,1,0
720,'2026/05/06 10:40:27:010',4,0.625124,0.91443,0,0.587505,0.873132,-0.025368,0.571704,0.815432,-0.038717,0.603554,0.776968,-0.051448,0.636852,0.751131,-0.062097,0.595718,0.728451,-0.018069,0.577438,0.663677,-0.037104,0.566399,0.620115,-0.051209,0.56146,0.584186,-0.059386,0.631941,0.736267,-0.017893,0.659232,0.666708,-0.033525,0.681204,0.622626,-0.042707,0.700977,0.590857,-0.047411,0.657752,0.763663,-0.021236,0.664469,0.745729,-0.046346,0.641895,0.782163,-0.048755,0.626384,0.814919,-0.042747,0.676353,0.802185,-0.026761,0.677622,0.783815,-0.044199,0.656723,0.806258,-0.039548,0.64152,0.830667,-0.031376,1,1,0
721,'2026/05/06 10:40:27:042',4,0.624653,0.912847,0,0.588246,0.871272,-0.025501,0.573141,0.813655,-0.038998,0.604212,0.77508,-0.051916,0.638587,0.750676,-0.062709,0.596475,0.72783,-0.017382,0.578248,0.66401,-0.036271,0.567589,0.620636,-0.050175,0.562967,0.584611,-0.058149,0.632516,0.735869,-0.017158,0.660088,0.667125,-0.032752,0.682085,0.623561,-0.041746,0.701514,0.591865,-0.046121,0.658543,0.763422,-0.020529,0.663882,0.744757,-0.045968,0.641314,0.781919,-0.048347,0.626035,0.814944,-0.042061,0.677437,0.801963,-0.026053,0.678434,0.782503,-0.04336,0.657173,0.804958,-0.038369,0.641746,0.829349,-0.029884,1,1,0
722,'2026/05/06 10:40:27:072',4,0.624932,0.915041,0,0.588431,0.874313,-0.024832,0.573013,0.816281,-0.037939,0.604099,0.77735,-0.050627,0.636445,0.750223,-0.06121,0.596547,0.730146,-0.017278,0.578972,0.665307,-0.036811,0.56797,0.621774,-0.051029,0.562385,0.586345,-0.058914,0.632898,0.737057,-0.017441,0.660511,0.666688,-0.033436,0.682191,0.622794,-0.042644,0.701183,0.591096,-0.047069,0.659281,0.763975,-0.021144,0.664628,0.746294,-0.046977,0.641743,0.784036,-0.049318,0.626,0.816982,-0.042856,0.678396,0.802301,-0.026917,0.67894,0.783042,-0.044327,0.657712,0.805949,-0.039025,0.642082,0.830806,-0.030255,1,1,0
723,'2026/05/06 10:40:27:107',4,0.625793,0.915306,0,0.589004,0.875305,-0.024953,0.573906,0.818459,-0.037952,0.60544,0.779978,-0.050405,0.637823,0.754121,-0.060839,0.596171,0.730554,-0.017651,0.578431,0.664747,-0.03659,0.567621,0.62112,-0.050572,0.562623,0.585336,-0.058569,0.632157,0.738136,-0.017482,0.659423,0.669173,-0.033555,0.681343,0.625471,-0.043107,0.700655,0.592562,-0.047841,0.658239,0.764873,-0.020706,0.66542,0.748398,-0.045788,0.643393,0.78543,-0.047959,0.628015,0.816646,-0.041663,0.677738,0.802673,-0.026057,0.678502,0.785719,-0.042851,0.657929,0.808456,-0.037694,0.64302,0.831778,-0.029158,1,1,0
724,'2026/05/06 10:40:27:135',4,0.627352,0.916837,0,0.589583,0.876577,-0.024979,0.573543,0.819254,-0.037895,0.605002,0.780677,-0.050192,0.63778,0.75434,-0.060326,0.597251,0.731322,-0.01719,0.579066,0.66695,-0.035712,0.567753,0.623961,-0.049477,0.562375,0.588422,-0.057403,0.633295,0.738168,-0.016964,0.660385,0.669242,-0.032032,0.681862,0.625364,-0.040972,0.700976,0.59291,-0.045493,0.658799,0.764576,-0.020274,0.666261,0.747634,-0.044723,0.645126,0.784583,-0.047258,0.630286,0.816768,-0.04144,0.677627,0.802244,-0.025755,0.679167,0.785832,-0.042371,0.659041,0.807564,-0.037836,0.644139,0.830376,-0.029922,1,1,0
725,'2026/05/06 10:40:27:176',4,0.626496,0.917317,0,0.58883,0.876816,-0.024965,0.57273,0.819125,-0.037748,0.604598,0.780609,-0.049931,0.637281,0.754496,-0.060088,0.597197,0.730881,-0.016955,0.579721,0.666033,-0.035923,0.569227,0.622432,-0.050122,0.564412,0.586233,-0.058376,0.633199,0.737656,-0.016839,0.66095,0.66785,-0.032441,0.682194,0.624114,-0.041783,0.701031,0.591528,-0.046413,0.659081,0.764656,-0.020214,0.665858,0.747701,-0.045199,0.644168,0.785221,-0.04764,0.629468,0.816934,-0.041601,0.678137,0.803321,-0.025759,0.67799,0.787445,-0.042895,0.657074,0.809995,-0.038195,0.642071,0.832945,-0.030014,1,1,0
726,'2026/05/06 10:40:27:219',4,0.626885,0.915682,0,0.589071,0.874983,-0.025354,0.573352,0.817337,-0.038596,0.605051,0.778716,-0.051111,0.638234,0.753323,-0.061533,0.59745,0.731581,-0.018167,0.579418,0.667828,-0.03714,0.568712,0.624182,-0.050991,0.564005,0.588017,-0.058923,0.633552,0.739032,-0.017928,0.66114,0.669859,-0.033708,0.683181,0.625919,-0.042751,0.702857,0.593906,-0.047191,0.659178,0.765747,-0.021202,0.665961,0.747998,-0.046712,0.643632,0.784629,-0.049123,0.628141,0.816998,-0.042906,0.677985,0.803611,-0.02659,0.679548,0.785749,-0.043942,0.658809,0.808003,-0.03911,0.643688,0.831809,-0.030787,1,1,0
727,'2026/05/06 10:40:27:243',4,0.626691,0.914635,0,0.588768,0.876459,-0.025674,0.571872,0.82078,-0.039408,0.602735,0.783019,-0.052279,0.635397,0.758125,-0.063077,0.597195,0.731192,-0.020037,0.579312,0.666765,-0.039129,0.568333,0.623217,-0.053124,0.563511,0.587296,-0.061248,0.633257,0.738182,-0.019543,0.661115,0.669192,-0.035209,0.682974,0.625955,-0.044085,0.701988,0.594198,-0.048476,0.659061,0.76479,-0.022406,0.666135,0.748336,-0.047284,0.644522,0.785034,-0.049522,0.629185,0.816544,-0.043513,0.67807,0.80283,-0.027441,0.678873,0.786813,-0.044783,0.658047,0.809814,-0.040107,0.64256,0.833616,-0.03193,1,1,0
728,'2026/05/06 10:40:27:285',4,0.6263,0.916385,0,0.589535,0.877056,-0.025516,0.574148,0.819521,-0.038994,0.605254,0.780838,-0.051735,0.637262,0.753657,-0.062381,0.598296,0.73196,-0.019272,0.580578,0.667723,-0.03906,0.569867,0.624236,-0.053573,0.564703,0.587927,-0.061946,0.634052,0.739478,-0.019206,0.66174,0.670389,-0.035604,0.682973,0.626624,-0.04516,0.7017,0.593466,-0.04987,0.659957,0.766359,-0.022563,0.667266,0.749659,-0.048128,0.644604,0.787669,-0.050349,0.629159,0.819386,-0.044024,0.679104,0.804733,-0.028089,0.679384,0.788409,-0.045538,0.658058,0.810906,-0.040658,0.642748,0.83358,-0.032271,1,1,0
729,'2026/05/06 10:40:27:327',4,0.62745,0.916129,0,0.590029,0.878178,-0.025824,0.573046,0.822824,-0.039498,0.603351,0.784596,-0.052478,0.636174,0.759532,-0.063456,0.598017,0.732169,-0.019206,0.580096,0.667803,-0.038375,0.569143,0.623811,-0.05254,0.564317,0.587355,-0.060806,0.63417,0.739093,-0.018795,0.661343,0.669551,-0.034714,0.682732,0.625856,-0.04405,0.701591,0.593247,-0.048779,0.660067,0.765739,-0.021833,0.666767,0.748479,-0.047245,0.645402,0.785718,-0.050128,0.630293,0.817624,-0.044413,0.679089,0.803756,-0.027031,0.679184,0.787272,-0.044632,0.658215,0.810464,-0.040329,0.642467,0.834716,-0.032423,1,1,0
730,'2026/05/06 10:40:27:353',4,0.62745,0.916129,0,0.590029,0.878178,-0.025824,0.573046,0.822824,-0.039498,0.603351,0.784596,-0.052478,0.636174,0.759532,-0.063456,0.598017,0.732169,-0.019206,0.580096,0.667803,-0.038375,0.569143,0.623811,-0.05254,0.564317,0.587355,-0.060806,0.63417,0.739093,-0.018795,0.661343,0.669551,-0.034714,0.682732,0.625856,-0.04405,0.701591,0.593247,-0.048779,0.660067,0.765739,-0.021833,0.666767,0.748479,-0.047245,0.645402,0.785718,-0.050128,0.630293,0.817624,-0.044413,0.679089,0.803756,-0.027031,0.679184,0.787272,-0.044632,0.658215,0.810464,-0.040329,0.642467,0.834716,-0.032423,1,1,0
731,'2026/05/06 10:40:27:377',4,0.626585,0.914939,0,0.589549,0.877025,-0.025219,0.574687,0.819637,-0.038296,0.605644,0.781247,-0.05072,0.639736,0.758306,-0.061292,0.598616,0.732198,-0.019725,0.58075,0.667156,-0.038691,0.569226,0.62264,-0.052887,0.564589,0.586336,-0.06132,0.633962,0.739633,-0.019448,0.661846,0.670524,-0.034262,0.683588,0.62644,-0.042891,0.702211,0.593427,-0.047517,0.659697,0.766595,-0.022483,0.667811,0.746216,-0.046591,0.646455,0.783842,-0.048351,0.630712,0.815949,-0.042379,0.678377,0.804374,-0.027733,0.680195,0.785516,-0.045048,0.659309,0.808608,-0.040251,0.643141,0.83245,-0.032196,1,1,0
732,'2026/05/06 10:40:27:415',4,0.625941,0.916064,0,0.590557,0.874373,-0.025614,0.575489,0.817193,-0.038625,0.606203,0.779161,-0.051195,0.639919,0.755135,-0.061812,0.599126,0.730586,-0.016205,0.581155,0.667336,-0.03503,0.570494,0.623691,-0.049328,0.565837,0.587839,-0.057554,0.633989,0.738479,-0.016168,0.66187,0.667507,-0.031624,0.683504,0.62385,-0.040687,0.701877,0.59189,-0.045031,0.659233,0.766171,-0.019875,0.66532,0.746481,-0.046019,0.643538,0.784301,-0.048824,0.627993,0.81614,-0.042565,0.677694,0.804945,-0.025693,0.68065,0.7831,-0.04332,0.659906,0.80609,-0.037997,0.64385,0.829892,-0.029269,1,1,0
733,'2026/05/06 10:40:27:447',4,0.625396,0.915048,0,0.58893,0.874283,-0.025905,0.573875,0.817624,-0.038998,0.603684,0.778842,-0.051433,0.63585,0.75199,-0.061849,0.597714,0.731413,-0.017091,0.580376,0.667684,-0.035365,0.569679,0.624662,-0.048974,0.565205,0.588976,-0.056836,0.633756,0.739236,-0.016655,0.660625,0.669923,-0.03166,0.68265,0.626795,-0.040867,0.702155,0.594753,-0.045619,0.659362,0.766105,-0.019886,0.665263,0.745504,-0.045371,0.643772,0.781941,-0.048989,0.628464,0.813483,-0.043791,0.678201,0.803718,-0.025248,0.6791,0.784278,-0.043443,0.657945,0.807569,-0.039735,0.641444,0.832149,-0.032254,1,1,0
734,'2026/05/06 10:40:27:482',4,0.626068,0.913798,0,0.589778,0.873155,-0.025305,0.573649,0.817117,-0.038699,0.602568,0.777731,-0.051472,0.634064,0.749855,-0.062087,0.597996,0.73123,-0.017769,0.580485,0.667708,-0.036191,0.569539,0.624594,-0.049927,0.565264,0.589395,-0.058185,0.633572,0.739036,-0.017892,0.660338,0.670062,-0.032596,0.682416,0.626943,-0.041715,0.702848,0.595486,-0.046858,0.658928,0.766203,-0.021541,0.665806,0.745452,-0.04506,0.644341,0.781036,-0.047036,0.629696,0.812467,-0.04169,0.677434,0.80442,-0.027567,0.67808,0.785394,-0.044798,0.657643,0.807063,-0.040692,0.64237,0.829802,-0.033367,1,1,0
735,'2026/05/06 10:40:27:514',4,0.625701,0.916,0,0.589117,0.874238,-0.025421,0.573961,0.816799,-0.038374,0.604762,0.779285,-0.050808,0.63706,0.753642,-0.061224,0.59729,0.731612,-0.016878,0.579711,0.667484,-0.035108,0.569387,0.624641,-0.048723,0.565126,0.588847,-0.056688,0.63313,0.739656,-0.016873,0.660036,0.669198,-0.031958,0.682269,0.625492,-0.041118,0.70207,0.593342,-0.045883,0.658731,0.766954,-0.020537,0.664387,0.746518,-0.045822,0.64296,0.782667,-0.049248,0.628076,0.814345,-0.043975,0.677374,0.80517,-0.026378,0.679169,0.785107,-0.044327,0.65818,0.807103,-0.040491,0.641668,0.830701,-0.033032,1,1,0
736,'2026/05/06 10:40:27:540',4,0.624167,0.914241,0,0.587499,0.873725,-0.024737,0.572678,0.817665,-0.03777,0.60361,0.781119,-0.050487,0.636347,0.757615,-0.061286,0.596647,0.732363,-0.017269,0.579534,0.668666,-0.035857,0.568791,0.625287,-0.049777,0.563999,0.589713,-0.057858,0.632874,0.739468,-0.017459,0.6598,0.670789,-0.032883,0.682289,0.626488,-0.04225,0.701834,0.593906,-0.047133,0.658941,0.765821,-0.021129,0.663329,0.74675,-0.046332,0.641588,0.782893,-0.049436,0.626087,0.814937,-0.043953,0.677929,0.803324,-0.026911,0.678579,0.784549,-0.044561,0.657081,0.806912,-0.040257,0.640151,0.831566,-0.032411,1,1,0
737,'2026/05/06 10:40:27:576',4,0.625632,0.919202,0,0.588225,0.875945,-0.025222,0.57304,0.817993,-0.037669,0.603785,0.779263,-0.049756,0.63545,0.751518,-0.059805,0.5972,0.731216,-0.014449,0.58015,0.667485,-0.032552,0.569678,0.624614,-0.046463,0.564981,0.58839,-0.054517,0.632997,0.739368,-0.01449,0.660375,0.668343,-0.029259,0.68234,0.623985,-0.038426,0.701661,0.591041,-0.043183,0.658555,0.76654,-0.018417,0.664572,0.745128,-0.043919,0.643007,0.782583,-0.047381,0.628075,0.814741,-0.041919,0.67733,0.804416,-0.024503,0.679256,0.782438,-0.0423,0.658141,0.806521,-0.037992,0.642171,0.832067,-0.030139,1,1,0
738,'2026/05/06 10:40:27:603',4,0.624483,0.913057,0,0.587615,0.872026,-0.024735,0.57277,0.815103,-0.037617,0.604083,0.777921,-0.050043,0.636969,0.753083,-0.060475,0.596573,0.731263,-0.016867,0.580049,0.667699,-0.035296,0.569757,0.62442,-0.048792,0.565114,0.588654,-0.056567,0.632632,0.73915,-0.01719,0.659698,0.670357,-0.032341,0.681204,0.626471,-0.041488,0.700678,0.59436,-0.046136,0.658473,0.766118,-0.021016,0.662829,0.745939,-0.045833,0.640447,0.78195,-0.048343,0.626021,0.813686,-0.042517,0.677141,0.804009,-0.026992,0.677118,0.783368,-0.044395,0.655917,0.805694,-0.039718,0.640815,0.829945,-0.031605,1,1,0
739,'2026/05/06 10:40:27:634',4,0.6241,0.916343,0,0.587592,0.874495,-0.024058,0.573268,0.81735,-0.03681,0.604166,0.779545,-0.049166,0.635761,0.752108,-0.059553,0.595668,0.730577,-0.016948,0.578913,0.666421,-0.034796,0.569106,0.622576,-0.048031,0.56499,0.586386,-0.056024,0.631513,0.738393,-0.017829,0.65929,0.668959,-0.032653,0.681637,0.62518,-0.042107,0.701839,0.592676,-0.047421,0.656738,0.765131,-0.022069,0.663853,0.744358,-0.045881,0.642353,0.779095,-0.048735,0.627379,0.80955,-0.043907,0.675646,0.802464,-0.028513,0.677519,0.783235,-0.046014,0.656579,0.805258,-0.042373,0.640153,0.828097,-0.035396,1,1,0
740,'2026/05/06 10:40:27:665',4,0.623797,0.914232,0,0.586974,0.872826,-0.025251,0.571681,0.81579,-0.038174,0.601234,0.777488,-0.050613,0.632799,0.750748,-0.061002,0.596256,0.730479,-0.016489,0.579156,0.666515,-0.034974,0.568349,0.623576,-0.048804,0.563504,0.587928,-0.056745,0.63185,0.738686,-0.016509,0.658396,0.668887,-0.031627,0.680268,0.624776,-0.04089,0.699711,0.59212,-0.045685,0.657487,0.765246,-0.020202,0.662582,0.744773,-0.04543,0.641098,0.780941,-0.048712,0.626264,0.81218,-0.043344,0.676333,0.802349,-0.026059,0.67715,0.78182,-0.043866,0.656204,0.805755,-0.03971,0.640579,0.830977,-0.03198,1,1,0
741,'2026/05/06 10:40:27:712',4,0.624213,0.913648,0,0.58639,0.873825,-0.02503,0.570628,0.816873,-0.037924,0.601348,0.77947,-0.050383,0.633806,0.75522,-0.060816,0.594607,0.729992,-0.017124,0.577188,0.666109,-0.03536,0.566852,0.622747,-0.048844,0.562491,0.587014,-0.056579,0.630586,0.737277,-0.017132,0.657584,0.667765,-0.03259,0.680045,0.623963,-0.041682,0.699523,0.591803,-0.046119,0.656443,0.763464,-0.020678,0.661315,0.744859,-0.046263,0.639718,0.782048,-0.049386,0.62438,0.814349,-0.043553,0.675649,0.800628,-0.026296,0.677223,0.78094,-0.043889,0.656321,0.803567,-0.039396,0.639971,0.827921,-0.031289,1,1,0
742,'2026/05/06 10:40:27:748',4,0.624213,0.913648,0,0.58639,0.873825,-0.02503,0.570628,0.816873,-0.037924,0.601348,0.77947,-0.050383,0.633806,0.75522,-0.060816,0.594607,0.729992,-0.017124,0.577188,0.666109,-0.03536,0.566852,0.622747,-0.048844,0.562491,0.587014,-0.056579,0.630586,0.737277,-0.017132,0.657584,0.667765,-0.03259,0.680045,0.623963,-0.041682,0.699523,0.591803,-0.046119,0.656443,0.763464,-0.020678,0.661315,0.744859,-0.046263,0.639718,0.782048,-0.049386,0.62438,0.814349,-0.043553,0.675649,0.800628,-0.026296,0.677223,0.78094,-0.043889,0.656321,0.803567,-0.039396,0.639971,0.827921,-0.031289,1,1,0
743,'2026/05/06 10:40:27:776',4,0.624239,0.912301,0,0.585699,0.871121,-0.025123,0.57029,0.813731,-0.038275,0.602496,0.776756,-0.050804,0.636248,0.753055,-0.061373,0.594711,0.72907,-0.017898,0.576934,0.665177,-0.036414,0.565971,0.622182,-0.050116,0.561031,0.586468,-0.058018,0.63054,0.736984,-0.017846,0.656741,0.667897,-0.033385,0.678867,0.623693,-0.042614,0.698546,0.59127,-0.047328,0.656214,0.763698,-0.021297,0.661386,0.745318,-0.04694,0.639935,0.782439,-0.049984,0.625067,0.814943,-0.04429,0.675061,0.801429,-0.02682,0.677027,0.781693,-0.0449,0.655797,0.805055,-0.040517,0.639449,0.829952,-0.032508,1,1,0
744,'2026/05/06 10:40:27:811',4,0.623482,0.911035,0,0.585179,0.873438,-0.025796,0.568702,0.816835,-0.038861,0.598971,0.778819,-0.05124,0.631689,0.754466,-0.061644,0.593727,0.728506,-0.018466,0.575717,0.664662,-0.037158,0.564704,0.620743,-0.051011,0.559973,0.584857,-0.058974,0.629253,0.735646,-0.018129,0.655805,0.666335,-0.033574,0.677318,0.62223,-0.04241,0.695759,0.589517,-0.046606,0.655019,0.761721,-0.021342,0.660346,0.743964,-0.047059,0.63865,0.782568,-0.049588,0.623466,0.814672,-0.043281,0.674241,0.798849,-0.026694,0.675309,0.77983,-0.044611,0.654225,0.804322,-0.039703,0.638432,0.829232,-0.031201,1,1,0
745,'2026/05/06 10:40:27:837',4,0.62291,0.907973,0,0.584058,0.87029,-0.025112,0.56758,0.814784,-0.039226,0.597915,0.778461,-0.052655,0.631493,0.756078,-0.06413,0.592917,0.728281,-0.020999,0.575547,0.665129,-0.040359,0.564665,0.621126,-0.054359,0.560115,0.586095,-0.062677,0.628877,0.735256,-0.021478,0.6553,0.667317,-0.037779,0.677574,0.62298,-0.0471,0.697721,0.590766,-0.052023,0.654746,0.761274,-0.025164,0.660521,0.74193,-0.050249,0.638537,0.778523,-0.05181,0.623298,0.810859,-0.045636,0.67389,0.798739,-0.031039,0.674814,0.778479,-0.049107,0.653471,0.801976,-0.044143,0.637356,0.826962,-0.035856,1,1,0
746,'2026/05/06 10:40:27:869',4,0.622647,0.910409,0,0.583607,0.872903,-0.025619,0.56666,0.816576,-0.038777,0.597279,0.779316,-0.051284,0.631189,0.756778,-0.061843,0.592937,0.728209,-0.01831,0.574773,0.664499,-0.036494,0.563803,0.620983,-0.050103,0.559206,0.585315,-0.058151,0.628454,0.735178,-0.018029,0.654858,0.665672,-0.033232,0.676569,0.621787,-0.042116,0.695386,0.58943,-0.046558,0.653841,0.761441,-0.021266,0.660009,0.742201,-0.046712,0.63893,0.78093,-0.049622,0.624044,0.813867,-0.04384,0.672694,0.798997,-0.026614,0.67425,0.779944,-0.044844,0.653318,0.804196,-0.040643,0.637283,0.829187,-0.032736,1,1,0
747,'2026/05/06 10:40:27:902',4,0.62239,0.9098,0,0.584129,0.871245,-0.026032,0.568246,0.814754,-0.039575,0.599304,0.777067,-0.052475,0.632198,0.751944,-0.063432,0.593226,0.728369,-0.018859,0.575088,0.664248,-0.037792,0.5641,0.62064,-0.051813,0.559389,0.585001,-0.059955,0.628901,0.735389,-0.018629,0.655241,0.666236,-0.034779,0.676942,0.62175,-0.04454,0.696179,0.588932,-0.0495,0.654462,0.761622,-0.021912,0.658928,0.742669,-0.048121,0.637306,0.779666,-0.051558,0.622302,0.812404,-0.046001,0.673209,0.799134,-0.027308,0.674119,0.77943,-0.045668,0.65269,0.802313,-0.041483,0.636082,0.827185,-0.033559,1,1,0
748,'2026/05/06 10:40:27:933',4,0.623007,0.909801,0,0.583522,0.872347,-0.025531,0.56666,0.815626,-0.038549,0.59845,0.778237,-0.05083,0.631773,0.753996,-0.061115,0.590178,0.727116,-0.018159,0.573316,0.664047,-0.035985,0.563314,0.621439,-0.049118,0.559281,0.58583,-0.05695,0.626726,0.734086,-0.017904,0.653799,0.665501,-0.0334,0.676396,0.621578,-0.042728,0.696596,0.588876,-0.047509,0.652631,0.760195,-0.021134,0.658268,0.742541,-0.046703,0.636873,0.779951,-0.050037,0.622389,0.812049,-0.0446,0.671916,0.797413,-0.026453,0.67319,0.779871,-0.04488,0.652386,0.803542,-0.041237,0.636951,0.827992,-0.033755,1,1,0
749,'2026/05/06 10:40:27:965',4,0.620936,0.906685,0,0.583583,0.87051,-0.025978,0.568255,0.814111,-0.03985,0.598886,0.775413,-0.052745,0.631183,0.749765,-0.063691,0.591361,0.727406,-0.021588,0.573339,0.663177,-0.041299,0.562351,0.619504,-0.055354,0.557407,0.584133,-0.063423,0.627143,0.734397,-0.021333,0.654039,0.666739,-0.037967,0.675573,0.622202,-0.047162,0.694525,0.588843,-0.051421,0.653063,0.760481,-0.024299,0.659266,0.744047,-0.050329,0.635436,0.781692,-0.051783,0.619362,0.813662,-0.044676,0.672225,0.79798,-0.029321,0.673161,0.779679,-0.04776,0.651355,0.803516,-0.042324,0.636065,0.827967,-0.033161,1,1,0
750,'2026/05/06 10:40:27:998',4,0.621815,0.907397,0,0.584437,0.87024,-0.025552,0.567595,0.814438,-0.039475,0.597914,0.775799,-0.052696,0.631189,0.751129,-0.063845,0.592226,0.727378,-0.019672,0.573802,0.663438,-0.03935,0.563125,0.620285,-0.053548,0.558426,0.584622,-0.061743,0.627761,0.734336,-0.019688,0.654163,0.666457,-0.036577,0.675552,0.621831,-0.046263,0.694691,0.588611,-0.050856,0.653192,0.760439,-0.023046,0.659274,0.743946,-0.049279,0.635865,0.780889,-0.05144,0.620092,0.812809,-0.044802,0.671851,0.798215,-0.028486,0.672206,0.781147,-0.046805,0.650327,0.804375,-0.041983,0.634696,0.828634,-0.033328,1,1,0
751,'2026/05/06 10:40:28:031',4,0.622104,0.905822,0,0.58409,0.870266,-0.025833,0.567279,0.815211,-0.039521,0.59789,0.777463,-0.052339,0.630675,0.753921,-0.063162,0.592681,0.72664,-0.020581,0.574548,0.662651,-0.040012,0.563483,0.618617,-0.054061,0.558628,0.582635,-0.062143,0.628479,0.73313,-0.020227,0.654489,0.664026,-0.036526,0.675617,0.620227,-0.045651,0.69442,0.587574,-0.049978,0.6545,0.759036,-0.023184,0.660005,0.743364,-0.049028,0.63749,0.78135,-0.051176,0.621656,0.813441,-0.044658,0.673792,0.796283,-0.028264,0.673241,0.78013,-0.04631,0.651678,0.80386,-0.041457,0.63557,0.828294,-0.032904,1,1,0
752,'2026/05/06 10:40:28:072',4,0.620738,0.905176,0,0.583808,0.869319,-0.026371,0.568541,0.813144,-0.040427,0.598856,0.77495,-0.053494,0.631123,0.750208,-0.064614,0.592223,0.727375,-0.022009,0.574658,0.662374,-0.042054,0.563177,0.618496,-0.056317,0.558064,0.583187,-0.064482,0.627518,0.734526,-0.021524,0.65399,0.6657,-0.038196,0.674934,0.620473,-0.047538,0.693691,0.586134,-0.051966,0.653425,0.760474,-0.024277,0.660146,0.742906,-0.050038,0.637251,0.780381,-0.05177,0.621727,0.812357,-0.044985,0.672739,0.797397,-0.029169,0.672719,0.778827,-0.047283,0.651741,0.80197,-0.042116,0.636758,0.826026,-0.033291,1,1,0
753,'2026/05/06 10:40:28:110',4,0.620667,0.90589,0,0.584255,0.869948,-0.025545,0.568132,0.814566,-0.039048,0.59733,0.776654,-0.051893,0.628989,0.751733,-0.062758,0.591768,0.725154,-0.020041,0.574051,0.66121,-0.039395,0.563175,0.617642,-0.053424,0.558519,0.58206,-0.061533,0.627346,0.731683,-0.019981,0.654499,0.663378,-0.035981,0.675708,0.61894,-0.045124,0.694219,0.585774,-0.049461,0.653396,0.757793,-0.023206,0.659948,0.741467,-0.04841,0.637833,0.779627,-0.050289,0.62242,0.812052,-0.043705,0.67256,0.795492,-0.028584,0.672477,0.779314,-0.046198,0.651854,0.802876,-0.041055,0.636701,0.827255,-0.032309,1,1,0
754,'2026/05/06 10:40:28:148',4,0.620667,0.90589,0,0.584255,0.869948,-0.025545,0.568132,0.814566,-0.039048,0.59733,0.776654,-0.051893,0.628989,0.751733,-0.062758,0.591768,0.725154,-0.020041,0.574051,0.66121,-0.039395,0.563175,0.617642,-0.053424,0.558519,0.58206,-0.061533,0.627346,0.731683,-0.019981,0.654499,0.663378,-0.035981,0.675708,0.61894,-0.045124,0.694219,0.585774,-0.049461,0.653396,0.757793,-0.023206,0.659948,0.741467,-0.04841,0.637833,0.779627,-0.050289,0.62242,0.812052,-0.043705,0.67256,0.795492,-0.028584,0.672477,0.779314,-0.046198,0.651854,0.802876,-0.041055,0.636701,0.827255,-0.032309,1,1,0
755,'2026/05/06 10:40:28:179',4,0.621886,0.907195,0,0.584251,0.869261,-0.025167,0.566904,0.814784,-0.038385,0.596472,0.777375,-0.051149,0.627978,0.752922,-0.062062,0.592479,0.725699,-0.0179,0.574901,0.66256,-0.037118,0.564203,0.619285,-0.051566,0.558958,0.583539,-0.059767,0.627946,0.732082,-0.017821,0.654894,0.661484,-0.033678,0.675959,0.616664,-0.042917,0.693961,0.583314,-0.047364,0.653789,0.758258,-0.021243,0.659244,0.740075,-0.047035,0.63728,0.777728,-0.04993,0.621198,0.809727,-0.043867,0.672875,0.795903,-0.026745,0.673548,0.777498,-0.044537,0.651803,0.800889,-0.039774,0.634414,0.825314,-0.031376,1,1,0
756,'2026/05/06 10:40:28:210',4,0.620983,0.906233,0,0.582543,0.868665,-0.025059,0.565287,0.813061,-0.038735,0.596679,0.776036,-0.05179,0.630666,0.75374,-0.06293,0.590355,0.724885,-0.019553,0.572518,0.660952,-0.038402,0.561708,0.617749,-0.052372,0.556901,0.581996,-0.060565,0.626508,0.731397,-0.019632,0.65299,0.662113,-0.035609,0.674821,0.617311,-0.044992,0.694136,0.583773,-0.04974,0.652459,0.757394,-0.02299,0.65748,0.739516,-0.04861,0.63566,0.77646,-0.051517,0.620383,0.808681,-0.045723,0.671623,0.794973,-0.028387,0.672104,0.776157,-0.046334,0.650364,0.799323,-0.041843,0.633552,0.824275,-0.033716,1,1,0
757,'2026/05/06 10:40:28:241',4,0.620637,0.905721,0,0.582579,0.868446,-0.025151,0.563952,0.81386,-0.039025,0.593523,0.776485,-0.052568,0.626526,0.752769,-0.064185,0.590691,0.724551,-0.018511,0.572327,0.660882,-0.037813,0.561309,0.617316,-0.052083,0.556507,0.581353,-0.060262,0.626592,0.730589,-0.018662,0.653414,0.661221,-0.035255,0.674717,0.615887,-0.04501,0.693375,0.582206,-0.049754,0.652627,0.755913,-0.022214,0.657029,0.7389,-0.048539,0.634497,0.776684,-0.051639,0.618741,0.80964,-0.04562,0.672032,0.792896,-0.027814,0.671544,0.775135,-0.045665,0.649471,0.798555,-0.040938,0.632496,0.823761,-0.032544,1,1,0
758,'2026/05/06 10:40:28:276',4,0.620676,0.905474,0,0.582181,0.868897,-0.025866,0.564097,0.812819,-0.039728,0.594494,0.774445,-0.052921,0.62846,0.750751,-0.064095,0.590156,0.724125,-0.019202,0.572282,0.660204,-0.038475,0.561304,0.616726,-0.052641,0.556328,0.580987,-0.060803,0.625752,0.730376,-0.018965,0.652668,0.660542,-0.035362,0.673827,0.615315,-0.045043,0.692526,0.581419,-0.049763,0.651502,0.756364,-0.022158,0.657097,0.739151,-0.048379,0.634627,0.77662,-0.051426,0.618772,0.80874,-0.045424,0.670462,0.794005,-0.027455,0.670834,0.776123,-0.04574,0.649204,0.798903,-0.041358,0.63231,0.822876,-0.033152,1,1,0
759,'2026/05/06 10:40:28:307',4,0.618278,0.90419,0,0.580524,0.868421,-0.025873,0.563233,0.813447,-0.039777,0.593238,0.777096,-0.052934,0.625087,0.75265,-0.064214,0.589298,0.722662,-0.021111,0.572232,0.658621,-0.041176,0.561294,0.615066,-0.056034,0.555997,0.579005,-0.06485,0.624788,0.729209,-0.021112,0.652427,0.660219,-0.03759,0.673158,0.615599,-0.047353,0.691407,0.581676,-0.052442,0.650582,0.75576,-0.024392,0.658243,0.738842,-0.049596,0.635188,0.77641,-0.051656,0.619222,0.807758,-0.045622,0.66952,0.794116,-0.029945,0.669266,0.778912,-0.048083,0.647542,0.802381,-0.043625,0.631579,0.825824,-0.03559,1,1,0
760,'2026/05/06 10:40:28:333',4,0.620615,0.904788,0,0.581601,0.867229,-0.025966,0.564222,0.810848,-0.03975,0.594429,0.772132,-0.052901,0.627646,0.74761,-0.064149,0.589924,0.723622,-0.019446,0.571681,0.66008,-0.03933,0.560755,0.616324,-0.05391,0.555792,0.580552,-0.062219,0.625339,0.729984,-0.019327,0.652183,0.659919,-0.036,0.673109,0.614531,-0.045511,0.691322,0.580988,-0.049978,0.651423,0.75586,-0.022686,0.656575,0.737997,-0.048955,0.633927,0.775358,-0.051395,0.61807,0.80773,-0.044922,0.67079,0.793263,-0.028226,0.670506,0.774561,-0.046393,0.648773,0.798283,-0.041407,0.632204,0.823285,-0.032732,1,1,0
761,'2026/05/06 10:40:28:365',4,0.619985,0.904481,0,0.580859,0.868409,-0.026253,0.563537,0.812351,-0.040103,0.593785,0.773672,-0.053091,0.626958,0.749639,-0.064117,0.58927,0.724217,-0.020568,0.571347,0.660428,-0.039976,0.560383,0.616531,-0.054151,0.555652,0.580574,-0.062484,0.625043,0.730187,-0.020248,0.651799,0.661142,-0.036603,0.67269,0.615573,-0.046106,0.691177,0.58147,-0.050727,0.651188,0.755749,-0.023262,0.656512,0.737807,-0.048933,0.63428,0.774617,-0.051466,0.619221,0.806831,-0.045338,0.670435,0.792891,-0.028464,0.669565,0.774764,-0.046641,0.648233,0.798007,-0.042119,0.632699,0.822689,-0.033843,1,1,0
762,'2026/05/06 10:40:28:399',4,0.616634,0.904269,0,0.578793,0.867368,-0.025806,0.564041,0.80981,-0.039107,0.594673,0.772129,-0.051756,0.627426,0.748206,-0.062535,0.589429,0.72268,-0.020387,0.572215,0.659162,-0.039265,0.561746,0.614753,-0.053192,0.557666,0.577833,-0.061476,0.624858,0.729359,-0.02037,0.652506,0.660981,-0.036113,0.674356,0.615457,-0.04517,0.692831,0.580735,-0.049741,0.651124,0.75516,-0.023619,0.656485,0.735997,-0.048954,0.633331,0.774388,-0.050748,0.616464,0.806585,-0.044285,0.670428,0.792207,-0.029084,0.671175,0.771903,-0.04707,0.648664,0.795799,-0.041669,0.630755,0.820482,-0.03293,1,1,0
763,'2026/05/06 10:40:28:431',4,0.618592,0.903718,0,0.579787,0.867116,-0.026111,0.562479,0.810664,-0.0403,0.592836,0.773197,-0.053736,0.626367,0.750523,-0.065283,0.588969,0.722742,-0.021672,0.571289,0.659256,-0.041624,0.560151,0.615302,-0.056134,0.555175,0.579662,-0.064598,0.624682,0.728935,-0.021668,0.651734,0.658754,-0.038319,0.672566,0.613397,-0.047656,0.690762,0.579451,-0.052263,0.650897,0.755066,-0.024942,0.656574,0.73664,-0.050897,0.633847,0.774501,-0.052823,0.617581,0.806669,-0.046362,0.670116,0.793087,-0.030435,0.670146,0.773854,-0.048735,0.648257,0.797413,-0.043663,0.631182,0.821866,-0.03509,1,1,0
764,'2026/05/06 10:40:28:462',4,0.619398,0.903892,0,0.580615,0.865976,-0.025532,0.563291,0.809934,-0.039317,0.593492,0.772111,-0.052434,0.626373,0.748143,-0.063627,0.58882,0.721796,-0.019385,0.571002,0.65819,-0.038812,0.560155,0.614965,-0.053052,0.555282,0.580068,-0.061146,0.62422,0.728407,-0.019384,0.651067,0.658458,-0.03589,0.672272,0.613498,-0.045451,0.69094,0.580263,-0.05,0.650237,0.754518,-0.022757,0.654866,0.737554,-0.049047,0.632403,0.774519,-0.051919,0.616909,0.806339,-0.045787,0.669761,0.792141,-0.028183,0.669482,0.773477,-0.046269,0.647598,0.797325,-0.041388,0.631346,0.822313,-0.032843,1,1,0
765,'2026/05/06 10:40:28:512',4,0.618069,0.903488,0,0.578848,0.866781,-0.025655,0.562509,0.810344,-0.039604,0.592907,0.772548,-0.052779,0.626371,0.749058,-0.064011,0.588546,0.723121,-0.020823,0.570917,0.658334,-0.039899,0.559797,0.614297,-0.053929,0.555507,0.579116,-0.062337,0.624637,0.72941,-0.021028,0.651185,0.660469,-0.036911,0.672757,0.615001,-0.046188,0.691479,0.580938,-0.050899,0.650836,0.755273,-0.02443,0.655562,0.735827,-0.049542,0.632946,0.773771,-0.051218,0.616963,0.806405,-0.044828,0.670053,0.792784,-0.029989,0.670493,0.772318,-0.048258,0.648491,0.796382,-0.043044,0.631697,0.821538,-0.034362,1,1,0
766,'2026/05/06 10:40:28:538',4,0.618069,0.903488,0,0.578848,0.866781,-0.025655,0.562509,0.810344,-0.039604,0.592907,0.772548,-0.052779,0.626371,0.749058,-0.064011,0.588546,0.723121,-0.020823,0.570917,0.658334,-0.039899,0.559797,0.614297,-0.053929,0.555507,0.579116,-0.062337,0.624637,0.72941,-0.021028,0.651185,0.660469,-0.036911,0.672757,0.615001,-0.046188,0.691479,0.580938,-0.050899,0.650836,0.755273,-0.02443,0.655562,0.735827,-0.049542,0.632946,0.773771,-0.051218,0.616963,0.806405,-0.044828,0.670053,0.792784,-0.029989,0.670493,0.772318,-0.048258,0.648491,0.796382,-0.043044,0.631697,0.821538,-0.034362,1,1,0
767,'2026/05/06 10:40:28:566',4,0.616773,0.902394,0,0.578616,0.866054,-0.026227,0.562754,0.808837,-0.040048,0.593331,0.770713,-0.053002,0.626443,0.746988,-0.064075,0.58832,0.721483,-0.021662,0.571578,0.656759,-0.041464,0.561019,0.612697,-0.055529,0.556713,0.57698,-0.063619,0.624141,0.728266,-0.021389,0.652231,0.659703,-0.038211,0.67366,0.614553,-0.047656,0.692404,0.58005,-0.052104,0.650734,0.754517,-0.024323,0.656088,0.738949,-0.050577,0.631607,0.776924,-0.052508,0.614734,0.808683,-0.04575,0.670309,0.791992,-0.029414,0.668868,0.775393,-0.047992,0.646098,0.799478,-0.042876,0.629349,0.823755,-0.034025,1,1,0
768,'2026/05/06 10:40:28:608',4,0.618573,0.903432,0,0.579666,0.864677,-0.024771,0.563679,0.808485,-0.038078,0.594093,0.770646,-0.051087,0.625996,0.745807,-0.062293,0.589501,0.721868,-0.018298,0.573395,0.658169,-0.03779,0.563638,0.615016,-0.051862,0.559185,0.579263,-0.059679,0.625402,0.728984,-0.018705,0.653766,0.659105,-0.035848,0.67647,0.614449,-0.045487,0.695936,0.581487,-0.049771,0.651504,0.754863,-0.022529,0.655037,0.737956,-0.049916,0.631223,0.776221,-0.052955,0.61435,0.809513,-0.046388,0.671196,0.792151,-0.028276,0.670963,0.773961,-0.047013,0.647247,0.797647,-0.042118,0.628254,0.822733,-0.033294,1,1,0
769,'2026/05/06 10:40:28:646',4,0.617827,0.902372,0,0.579358,0.865894,-0.026022,0.563377,0.809359,-0.039869,0.594307,0.77075,-0.052851,0.626418,0.745299,-0.063805,0.589126,0.721187,-0.020782,0.572437,0.657613,-0.041334,0.562386,0.614016,-0.055986,0.558065,0.577781,-0.064415,0.625108,0.728642,-0.020657,0.653087,0.660493,-0.038732,0.674984,0.615937,-0.048782,0.694675,0.582027,-0.053355,0.651271,0.755283,-0.023849,0.657469,0.739519,-0.051245,0.632258,0.776968,-0.053214,0.615489,0.808531,-0.046053,0.670665,0.793407,-0.029141,0.669385,0.778013,-0.048455,0.646048,0.801592,-0.043682,0.629499,0.825021,-0.034757,1,1,0
770,'2026/05/06 10:40:28:682',4,0.618251,0.903153,0,0.580374,0.866641,-0.026886,0.564625,0.809228,-0.041587,0.594235,0.770259,-0.055288,0.627152,0.745277,-0.067047,0.59015,0.723782,-0.022964,0.572513,0.658612,-0.043574,0.561349,0.614434,-0.058143,0.55702,0.579107,-0.066568,0.625269,0.731268,-0.022709,0.652172,0.66292,-0.040618,0.674086,0.617645,-0.050465,0.693469,0.58298,-0.055141,0.651081,0.757505,-0.025708,0.656961,0.738653,-0.052992,0.632618,0.777185,-0.05443,0.615735,0.809519,-0.047192,0.67031,0.795009,-0.030854,0.670417,0.77494,-0.05046,0.647377,0.799408,-0.045129,0.630305,0.82398,-0.035962,1,1,0
771,'2026/05/06 10:40:28:722',4,0.619236,0.904036,0,0.580341,0.866151,-0.025974,0.563428,0.808386,-0.040354,0.594137,0.770177,-0.05399,0.627824,0.746222,-0.065639,0.589609,0.722348,-0.021243,0.572545,0.657986,-0.041304,0.562106,0.614706,-0.055491,0.557662,0.579541,-0.063525,0.625423,0.729684,-0.021182,0.653362,0.660756,-0.038754,0.675281,0.616219,-0.048445,0.694949,0.583127,-0.0529,0.651382,0.756118,-0.024407,0.656448,0.739067,-0.05157,0.631584,0.776229,-0.053751,0.614707,0.808286,-0.046906,0.670486,0.794077,-0.029692,0.669918,0.776038,-0.048516,0.646794,0.799095,-0.04351,0.629557,0.823136,-0.034652,1,1,0
772,'2026/05/06 10:40:28:755',4,0.619287,0.902268,0,0.580662,0.865248,-0.026193,0.563245,0.810088,-0.040472,0.592914,0.771702,-0.053991,0.625994,0.746552,-0.065543,0.589011,0.721344,-0.019883,0.571749,0.657543,-0.039594,0.561334,0.614315,-0.0537,0.557028,0.579005,-0.061567,0.624718,0.728674,-0.019502,0.652547,0.659817,-0.036664,0.674481,0.615884,-0.0462,0.693585,0.583041,-0.050403,0.650748,0.754805,-0.022569,0.656166,0.738625,-0.049772,0.632892,0.777598,-0.052421,0.616952,0.810039,-0.045709,0.670441,0.792344,-0.027667,0.670292,0.775237,-0.046379,0.647424,0.800118,-0.041393,0.630235,0.824934,-0.032477,1,1,0
773,'2026/05/06 10:40:28:790',4,0.618052,0.904909,0,0.578964,0.867773,-0.026147,0.563108,0.810216,-0.04005,0.594117,0.770599,-0.053043,0.627214,0.744874,-0.064024,0.588487,0.723599,-0.020594,0.571749,0.657968,-0.040362,0.560402,0.61393,-0.054507,0.555648,0.578879,-0.062632,0.624241,0.73059,-0.02031,0.65148,0.662717,-0.037066,0.672598,0.61702,-0.046728,0.691234,0.582417,-0.051256,0.650126,0.756868,-0.023292,0.655966,0.73934,-0.049371,0.631928,0.777335,-0.051197,0.615671,0.810101,-0.044345,0.669254,0.794474,-0.028374,0.669109,0.775762,-0.047012,0.646397,0.799478,-0.041849,0.62989,0.82392,-0.032843,1,1,0
774,'2026/05/06 10:40:28:819',4,0.616837,0.903436,0,0.579331,0.865336,-0.026147,0.563083,0.809102,-0.03999,0.593544,0.771033,-0.053134,0.626244,0.746745,-0.064246,0.588513,0.722217,-0.019621,0.571803,0.658617,-0.039727,0.561903,0.614836,-0.054129,0.557759,0.578885,-0.062258,0.624004,0.729368,-0.019443,0.652078,0.661582,-0.037004,0.673768,0.616006,-0.046938,0.692904,0.581679,-0.051401,0.650312,0.755659,-0.022688,0.655228,0.740762,-0.049582,0.630401,0.77737,-0.051654,0.613469,0.808743,-0.044518,0.669904,0.793331,-0.028108,0.668416,0.77699,-0.046342,0.645575,0.799761,-0.04102,0.629047,0.823314,-0.031866,1,1,0
775,'2026/05/06 10:40:28:849',4,0.619368,0.902666,0,0.579808,0.865626,-0.025805,0.562984,0.808105,-0.039462,0.593709,0.769363,-0.052374,0.6275,0.746008,-0.063366,0.588637,0.722711,-0.0199,0.571247,0.658004,-0.039279,0.561198,0.614117,-0.05307,0.557066,0.578552,-0.060914,0.624146,0.729674,-0.019794,0.651319,0.659371,-0.0371,0.673632,0.61489,-0.046693,0.693236,0.581947,-0.050966,0.650041,0.755438,-0.023051,0.653892,0.738148,-0.050455,0.630604,0.776647,-0.053028,0.614844,0.80938,-0.046239,0.669548,0.792324,-0.028315,0.669153,0.773073,-0.0474,0.646347,0.797076,-0.042524,0.62907,0.82169,-0.033731,1,1,0
776,'2026/05/06 10:40:28:881',4,0.61869,0.902471,0,0.580286,0.865474,-0.025964,0.563249,0.810532,-0.039986,0.592977,0.772253,-0.05334,0.62555,0.747237,-0.064678,0.588808,0.722415,-0.019886,0.571642,0.658305,-0.039776,0.56088,0.615074,-0.054069,0.556333,0.579506,-0.062107,0.624656,0.728923,-0.019632,0.65208,0.660263,-0.0367,0.673545,0.615309,-0.046439,0.692545,0.581128,-0.050885,0.650962,0.754932,-0.022754,0.656411,0.740084,-0.049126,0.633052,0.777876,-0.051582,0.616636,0.809935,-0.044973,0.670551,0.792517,-0.028013,0.669619,0.777637,-0.04604,0.647492,0.801012,-0.041134,0.630744,0.824825,-0.032399,1,1,0
777,'2026/05/06 10:40:28:912',4,0.616542,0.900954,0,0.577885,0.8653,-0.026311,0.563193,0.807893,-0.040483,0.594471,0.770174,-0.053553,0.626716,0.744809,-0.064802,0.588543,0.722504,-0.023805,0.571577,0.657236,-0.043909,0.560653,0.613346,-0.05792,0.556258,0.578518,-0.066028,0.624144,0.73009,-0.023706,0.651138,0.661446,-0.041116,0.672854,0.616154,-0.050718,0.692095,0.582053,-0.055288,0.650291,0.756557,-0.026628,0.654643,0.738673,-0.053006,0.630691,0.776286,-0.054385,0.614614,0.808179,-0.047423,0.669642,0.794289,-0.031647,0.668177,0.774507,-0.050778,0.645327,0.799192,-0.045416,0.629084,0.82438,-0.036347,1,1,0
778,'2026/05/06 10:40:28:941',4,0.616542,0.900954,0,0.577885,0.8653,-0.026311,0.563193,0.807893,-0.040483,0.594471,0.770174,-0.053553,0.626716,0.744809,-0.064802,0.588543,0.722504,-0.023805,0.571577,0.657236,-0.043909,0.560653,0.613346,-0.05792,0.556258,0.578518,-0.066028,0.624144,0.73009,-0.023706,0.651138,0.661446,-0.041116,0.672854,0.616154,-0.050718,0.692095,0.582053,-0.055288,0.650291,0.756557,-0.026628,0.654643,0.738673,-0.053006,0.630691,0.776286,-0.054385,0.614614,0.808179,-0.047423,0.669642,0.794289,-0.031647,0.668177,0.774507,-0.050778,0.645327,0.799192,-0.045416,0.629084,0.82438,-0.036347,1,1,0
779,'2026/05/06 10:40:28:984',4,0.617081,0.903231,0,0.578483,0.86622,-0.027047,0.562448,0.808842,-0.040743,0.593777,0.76976,-0.053448,0.62693,0.744396,-0.06412,0.588726,0.721314,-0.02046,0.57231,0.656699,-0.040201,0.562226,0.612697,-0.054306,0.558254,0.57688,-0.062432,0.624386,0.728408,-0.019773,0.652283,0.660188,-0.036695,0.673488,0.615391,-0.046358,0.69221,0.581576,-0.050922,0.650368,0.75493,-0.022579,0.65666,0.739614,-0.049172,0.63282,0.777817,-0.051359,0.616354,0.809654,-0.044621,0.669388,0.79288,-0.027656,0.668459,0.77709,-0.046426,0.646296,0.800583,-0.041766,0.629768,0.823873,-0.0332,1,1,0
780,'2026/05/06 10:40:29:021',4,0.618634,0.906043,0,0.580684,0.867292,-0.025368,0.56292,0.811052,-0.039222,0.592324,0.772212,-0.052755,0.625594,0.747247,-0.06445,0.588932,0.72295,-0.018219,0.571711,0.658675,-0.037662,0.561719,0.615231,-0.051902,0.557874,0.579441,-0.060105,0.624302,0.729805,-0.018491,0.652125,0.660813,-0.035678,0.673451,0.615661,-0.045716,0.691967,0.581682,-0.05042,0.650143,0.756091,-0.022208,0.654506,0.73771,-0.049445,0.630453,0.775255,-0.052548,0.614015,0.80764,-0.046233,0.669466,0.794339,-0.027941,0.669394,0.775167,-0.046737,0.646232,0.79861,-0.042092,0.628484,0.82327,-0.033521,1,1,0
781,'2026/05/06 10:40:29:051',4,0.618684,0.903643,0,0.580272,0.866881,-0.025663,0.562952,0.810766,-0.039793,0.592636,0.7734,-0.053354,0.625522,0.749357,-0.065094,0.588292,0.722898,-0.020693,0.57113,0.658281,-0.040241,0.561215,0.614505,-0.054144,0.557462,0.579085,-0.062097,0.624251,0.729835,-0.020846,0.65166,0.660539,-0.038132,0.673328,0.615665,-0.047844,0.69209,0.581994,-0.052279,0.650738,0.755996,-0.02423,0.654612,0.738174,-0.051234,0.631226,0.776708,-0.053722,0.61519,0.809504,-0.047081,0.670479,0.793925,-0.029622,0.669817,0.774323,-0.048383,0.647053,0.798169,-0.043296,0.629658,0.82306,-0.034395,1,1,0
782,'2026/05/06 10:40:29:084',4,0.618275,0.903548,0,0.579028,0.866609,-0.025375,0.562002,0.810245,-0.039273,0.592578,0.772726,-0.05255,0.62539,0.748624,-0.063921,0.588946,0.722677,-0.019983,0.571651,0.658875,-0.039759,0.561231,0.615449,-0.054005,0.556544,0.580521,-0.062104,0.624839,0.729784,-0.020296,0.651618,0.660195,-0.037666,0.673281,0.615386,-0.047686,0.692458,0.582017,-0.052309,0.651006,0.756193,-0.023877,0.655502,0.739783,-0.050656,0.632559,0.777481,-0.053358,0.616772,0.809917,-0.046941,0.670335,0.794241,-0.029469,0.669688,0.776006,-0.048044,0.646751,0.79917,-0.043155,0.629062,0.823242,-0.034451,1,1,0
783,'2026/05/06 10:40:29:115',4,0.617588,0.903636,0,0.579416,0.867032,-0.025974,0.563299,0.809988,-0.039969,0.594402,0.772063,-0.053222,0.627956,0.748168,-0.064677,0.588103,0.722131,-0.021257,0.571053,0.657638,-0.041231,0.560803,0.61395,-0.055473,0.556565,0.578645,-0.063625,0.623821,0.729376,-0.021354,0.651132,0.660671,-0.038805,0.672598,0.615524,-0.048666,0.691333,0.581248,-0.05321,0.650188,0.755735,-0.024689,0.654651,0.739053,-0.051684,0.630878,0.77663,-0.054026,0.614659,0.808446,-0.047326,0.669674,0.793518,-0.030104,0.668724,0.775249,-0.049051,0.645914,0.798719,-0.044046,0.628744,0.822858,-0.035175,1,1,0
784,'2026/05/06 10:40:29:154',4,0.618333,0.903125,0,0.57885,0.865425,-0.024719,0.561756,0.809797,-0.038056,0.593033,0.773902,-0.051047,0.627052,0.752492,-0.062211,0.588548,0.721987,-0.018106,0.571523,0.659291,-0.036845,0.561614,0.616299,-0.050658,0.557303,0.580917,-0.058606,0.624551,0.728796,-0.018602,0.651451,0.658595,-0.034916,0.673207,0.613817,-0.044454,0.692053,0.580911,-0.048942,0.650521,0.755108,-0.022459,0.653393,0.737174,-0.048948,0.630571,0.774914,-0.052232,0.614635,0.807665,-0.04622,0.669756,0.792957,-0.028267,0.66968,0.773304,-0.046521,0.646863,0.795934,-0.041844,0.62851,0.820273,-0.033428,1,1,0
785,'2026/05/06 10:40:29:184',4,0.617681,0.90269,0,0.579026,0.865848,-0.025564,0.562274,0.809869,-0.039538,0.59242,0.773089,-0.052869,0.625846,0.749847,-0.064262,0.588397,0.722524,-0.020503,0.571022,0.659623,-0.039825,0.561166,0.615966,-0.053673,0.557035,0.580625,-0.061624,0.624287,0.729501,-0.020824,0.650451,0.659464,-0.037594,0.67218,0.614211,-0.047046,0.691196,0.581039,-0.051556,0.650362,0.755903,-0.024442,0.652942,0.736902,-0.050803,0.630274,0.773847,-0.053475,0.614756,0.806061,-0.047325,0.669481,0.793611,-0.030138,0.669135,0.772357,-0.048565,0.646264,0.794777,-0.043803,0.6284,0.819007,-0.035426,1,1,0
786,'2026/05/06 10:40:29:210',4,0.617524,0.905472,0,0.578569,0.866057,-0.024972,0.562128,0.809355,-0.038001,0.593032,0.772832,-0.050771,0.627261,0.750153,-0.06165,0.588701,0.722659,-0.016222,0.571717,0.659786,-0.034408,0.561745,0.616825,-0.048104,0.557443,0.581132,-0.055988,0.624493,0.730021,-0.016569,0.650891,0.659447,-0.032226,0.672427,0.614298,-0.041742,0.690728,0.580498,-0.0464,0.650624,0.755838,-0.020528,0.65354,0.735345,-0.046752,0.632409,0.773364,-0.050639,0.617602,0.806063,-0.045183,0.670158,0.79258,-0.026496,0.670981,0.768802,-0.044519,0.648701,0.7919,-0.040025,0.630505,0.8171,-0.031956,1,1,0
787,'2026/05/06 10:40:29:241',4,0.617657,0.902991,0,0.579115,0.865774,-0.025753,0.562422,0.809592,-0.039591,0.59347,0.772978,-0.05294,0.627865,0.749898,-0.064479,0.587992,0.722594,-0.019765,0.570908,0.659023,-0.038956,0.560951,0.61588,-0.053046,0.556736,0.580568,-0.061134,0.623841,0.729812,-0.019873,0.651154,0.659471,-0.036344,0.672403,0.614184,-0.046099,0.690329,0.580337,-0.050936,0.650127,0.756169,-0.023374,0.654345,0.735804,-0.049717,0.632387,0.773559,-0.053056,0.616906,0.806152,-0.047328,0.669696,0.793514,-0.028937,0.670904,0.770907,-0.046858,0.649013,0.792545,-0.042195,0.631215,0.816268,-0.034051,1,1,0
788,'2026/05/06 10:40:29:278',4,0.618416,0.904274,0,0.579388,0.867943,-0.025687,0.561318,0.813112,-0.039732,0.590654,0.776621,-0.053259,0.623553,0.752986,-0.064877,0.587653,0.722266,-0.019708,0.570201,0.658483,-0.038579,0.559833,0.615176,-0.052467,0.55564,0.579723,-0.060473,0.623912,0.729237,-0.019741,0.650848,0.659737,-0.035869,0.672421,0.614731,-0.045471,0.691058,0.58137,-0.050175,0.650241,0.755439,-0.023127,0.654373,0.73641,-0.04892,0.632843,0.773641,-0.052309,0.617804,0.806224,-0.046712,0.669948,0.792874,-0.028583,0.670517,0.772714,-0.046451,0.648988,0.795088,-0.042071,0.632115,0.819595,-0.034,1,1,0
789,'2026/05/06 10:40:29:322',4,0.619328,0.904321,0,0.580962,0.867301,-0.024762,0.562466,0.812371,-0.038431,0.592323,0.774805,-0.051781,0.625875,0.750574,-0.063126,0.589065,0.723508,-0.017562,0.571439,0.660048,-0.036426,0.560721,0.617416,-0.050532,0.555909,0.581935,-0.058559,0.625073,0.729562,-0.017847,0.651665,0.660281,-0.033727,0.673376,0.614815,-0.043537,0.692614,0.580624,-0.048411,0.651063,0.754912,-0.021514,0.654319,0.737233,-0.047064,0.633051,0.774681,-0.050431,0.618215,0.807437,-0.044748,0.67045,0.791994,-0.027201,0.670412,0.772448,-0.04423,0.648824,0.795003,-0.0393,0.631715,0.819809,-0.030922,1,1,0
790,'2026/05/06 10:40:29:348',4,0.619328,0.904321,0,0.580962,0.867301,-0.024762,0.562466,0.812371,-0.038431,0.592323,0.774805,-0.051781,0.625875,0.750574,-0.063126,0.589065,0.723508,-0.017562,0.571439,0.660048,-0.036426,0.560721,0.617416,-0.050532,0.555909,0.581935,-0.058559,0.625073,0.729562,-0.017847,0.651665,0.660281,-0.033727,0.673376,0.614815,-0.043537,0.692614,0.580624,-0.048411,0.651063,0.754912,-0.021514,0.654319,0.737233,-0.047064,0.633051,0.774681,-0.050431,0.618215,0.807437,-0.044748,0.67045,0.791994,-0.027201,0.670412,0.772448,-0.04423,0.648824,0.795003,-0.0393,0.631715,0.819809,-0.030922,1,1,0
791,'2026/05/06 10:40:29:379',4,0.618158,0.904054,0,0.579792,0.866794,-0.024884,0.562069,0.8127,-0.03892,0.592062,0.776645,-0.052612,0.625901,0.754102,-0.064442,0.588816,0.723331,-0.019174,0.571309,0.660193,-0.038443,0.560562,0.61691,-0.052699,0.555699,0.581372,-0.060811,0.624818,0.729956,-0.019523,0.651873,0.660512,-0.035819,0.673506,0.61499,-0.045678,0.692467,0.581439,-0.050607,0.650961,0.755758,-0.023155,0.655391,0.737549,-0.048684,0.633874,0.773783,-0.052207,0.618747,0.80617,-0.046787,0.670403,0.792719,-0.028808,0.670857,0.772915,-0.04591,0.649462,0.794892,-0.04125,0.632473,0.819546,-0.033124,1,1,0
792,'2026/05/06 10:40:29:410',4,0.617866,0.90563,0,0.580243,0.867532,-0.02495,0.563229,0.811756,-0.038747,0.593637,0.77383,-0.052167,0.626188,0.747608,-0.06363,0.588603,0.723488,-0.0182,0.571608,0.659408,-0.037811,0.561177,0.616925,-0.052251,0.556251,0.581528,-0.060384,0.624274,0.730297,-0.018619,0.651937,0.660363,-0.035492,0.673932,0.615021,-0.045719,0.693495,0.580617,-0.050628,0.650225,0.756208,-0.022434,0.654807,0.738694,-0.048627,0.632501,0.775759,-0.052009,0.617503,0.807845,-0.046142,0.669804,0.79359,-0.02827,0.66969,0.774238,-0.045746,0.648096,0.796956,-0.040933,0.631928,0.821333,-0.032494,1,1,0
793,'2026/05/06 10:40:29:440',4,0.618307,0.904421,0,0.580348,0.868025,-0.025803,0.563234,0.812215,-0.039688,0.593871,0.774493,-0.052912,0.627283,0.749817,-0.064215,0.589125,0.723392,-0.020103,0.571864,0.659812,-0.039658,0.561791,0.616506,-0.053898,0.557255,0.58033,-0.062028,0.624912,0.73021,-0.020107,0.652383,0.660435,-0.036785,0.673771,0.614738,-0.046762,0.692344,0.580174,-0.051638,0.651036,0.75654,-0.023441,0.655328,0.739286,-0.049499,0.633568,0.775949,-0.052901,0.618483,0.80738,-0.047198,0.670312,0.794046,-0.02887,0.670185,0.775144,-0.046501,0.648782,0.797167,-0.041964,0.632253,0.820798,-0.033808,1,1,0
794,'2026/05/06 10:40:29:474',4,0.618997,0.90481,0,0.580387,0.86791,-0.025618,0.563119,0.813451,-0.039076,0.593753,0.776775,-0.051966,0.624472,0.749984,-0.062961,0.589293,0.723813,-0.019101,0.571887,0.659341,-0.03824,0.561238,0.616397,-0.052543,0.556217,0.580644,-0.060733,0.625043,0.730067,-0.018962,0.652364,0.659854,-0.035015,0.673538,0.614234,-0.04494,0.692074,0.58007,-0.04995,0.650869,0.755976,-0.022187,0.655688,0.737465,-0.047434,0.633828,0.774079,-0.05066,0.618778,0.805938,-0.045091,0.670048,0.793255,-0.02756,0.669709,0.774385,-0.044906,0.648587,0.797008,-0.040356,0.632541,0.821518,-0.032243,1,1,0
795,'2026/05/06 10:40:29:514',4,0.619291,0.905651,0,0.580836,0.868361,-0.025861,0.563425,0.812803,-0.039824,0.593579,0.774966,-0.053265,0.627366,0.75057,-0.064796,0.58902,0.724049,-0.019361,0.571964,0.6605,-0.038883,0.561877,0.617334,-0.053249,0.557489,0.581433,-0.061493,0.625073,0.730162,-0.019397,0.652281,0.660639,-0.036211,0.673509,0.614659,-0.046366,0.691825,0.579812,-0.051353,0.651425,0.755864,-0.02285,0.654236,0.737786,-0.049219,0.632153,0.774423,-0.052825,0.616736,0.806259,-0.047197,0.670924,0.792996,-0.028417,0.670371,0.773728,-0.046209,0.648452,0.795468,-0.041759,0.631148,0.819039,-0.033666,1,1,0
796,'2026/05/06 10:40:29:554',4,0.618588,0.906958,0,0.580538,0.869999,-0.025603,0.562554,0.813459,-0.039256,0.593467,0.775846,-0.052457,0.628427,0.753149,-0.063727,0.589479,0.723619,-0.018701,0.57211,0.659578,-0.03749,0.562191,0.615959,-0.051595,0.557934,0.579256,-0.059899,0.625221,0.730381,-0.01877,0.653018,0.660094,-0.034691,0.674259,0.614315,-0.044301,0.692167,0.579654,-0.049139,0.65127,0.756829,-0.022281,0.654403,0.737339,-0.048002,0.632323,0.774436,-0.051572,0.616994,0.806357,-0.046134,0.670668,0.794871,-0.027909,0.670985,0.773951,-0.045517,0.648358,0.794987,-0.041173,0.630181,0.817887,-0.033337,1,1,0
797,'2026/05/06 10:40:29:585',4,0.619375,0.906108,0,0.581332,0.869587,-0.026051,0.563173,0.814577,-0.040124,0.592567,0.775382,-0.053714,0.623953,0.747757,-0.065272,0.58912,0.724395,-0.018974,0.572172,0.659743,-0.039242,0.56183,0.616769,-0.054027,0.556576,0.581062,-0.062219,0.624715,0.73079,-0.018826,0.652518,0.660453,-0.036343,0.674239,0.614943,-0.04676,0.693262,0.580406,-0.051682,0.65068,0.756572,-0.022234,0.655885,0.740356,-0.049165,0.632734,0.778069,-0.052595,0.616787,0.809606,-0.046468,0.670187,0.793839,-0.027743,0.670353,0.77559,-0.045648,0.648209,0.798485,-0.040996,0.63121,0.822092,-0.032538,1,1,0
798,'2026/05/06 10:40:29:624',4,0.619815,0.905831,0,0.580817,0.868858,-0.025588,0.56297,0.812914,-0.039637,0.593153,0.774773,-0.053149,0.626564,0.750022,-0.064702,0.588737,0.724353,-0.019536,0.571106,0.659919,-0.038905,0.560419,0.616847,-0.053029,0.555813,0.581623,-0.061067,0.624924,0.731181,-0.019564,0.651547,0.661692,-0.036278,0.673254,0.616276,-0.04643,0.692812,0.582287,-0.05147,0.651081,0.756997,-0.022949,0.655348,0.738976,-0.049174,0.633594,0.77575,-0.052843,0.618927,0.808268,-0.047326,0.670608,0.794208,-0.028359,0.670634,0.774526,-0.046198,0.649296,0.796735,-0.041891,0.633211,0.821276,-0.033866,1,1,0
799,'2026/05/06 10:40:29:669',4,0.618569,0.905219,0,0.58059,0.867653,-0.026016,0.564138,0.811372,-0.040205,0.594867,0.774182,-0.05384,0.629458,0.751806,-0.065584,0.589607,0.724572,-0.020712,0.571989,0.660707,-0.040389,0.5611,0.616346,-0.054963,0.556594,0.580126,-0.063593,0.62522,0.731357,-0.020895,0.652137,0.661788,-0.037543,0.673623,0.615705,-0.047415,0.692171,0.581213,-0.052608,0.651244,0.757548,-0.024445,0.655777,0.737611,-0.050456,0.633353,0.7738,-0.053234,0.617144,0.805497,-0.047524,0.670192,0.795252,-0.03019,0.672146,0.772926,-0.048391,0.649533,0.794411,-0.04361,0.630699,0.817966,-0.035484,1,1,0
800,'2026/05/06 10:40:29:709',4,0.618605,0.905324,0,0.580824,0.868429,-0.02594,0.563192,0.812859,-0.040246,0.592496,0.775091,-0.053985,0.626032,0.751423,-0.065772,0.588882,0.723418,-0.020425,0.571463,0.660094,-0.040198,0.561225,0.616611,-0.054536,0.556813,0.580897,-0.062729,0.62506,0.729808,-0.020444,0.652116,0.660707,-0.037404,0.673285,0.615338,-0.047187,0.691458,0.581122,-0.051826,0.651562,0.755805,-0.023803,0.655352,0.738104,-0.050145,0.632352,0.774832,-0.053135,0.616022,0.806658,-0.04707,0.671232,0.793302,-0.029272,0.67028,0.774855,-0.047206,0.647821,0.796416,-0.042551,0.630018,0.81971,-0.034191,1,1,0
801,'2026/05/06 10:40:29:737',4,0.617491,0.902718,0,0.579474,0.86745,-0.026418,0.562891,0.81128,-0.040575,0.593256,0.77379,-0.053948,0.627123,0.750368,-0.065432,0.589191,0.723329,-0.021697,0.57133,0.66035,-0.041588,0.560719,0.616685,-0.055997,0.555933,0.580857,-0.064249,0.624783,0.72994,-0.021457,0.651912,0.660313,-0.038161,0.673034,0.614749,-0.047647,0.691244,0.580566,-0.052234,0.650907,0.755971,-0.024537,0.654302,0.737292,-0.050465,0.631844,0.773901,-0.053194,0.616404,0.805386,-0.04721,0.670195,0.793232,-0.029829,0.669621,0.77319,-0.047708,0.6474,0.794722,-0.043033,0.630151,0.817928,-0.034862,1,1,0
802,'2026/05/06 10:40:29:770',4,0.617491,0.902718,0,0.579474,0.86745,-0.026418,0.562891,0.81128,-0.040575,0.593256,0.77379,-0.053948,0.627123,0.750368,-0.065432,0.589191,0.723329,-0.021697,0.57133,0.66035,-0.041588,0.560719,0.616685,-0.055997,0.555933,0.580857,-0.064249,0.624783,0.72994,-0.021457,0.651912,0.660313,-0.038161,0.673034,0.614749,-0.047647,0.691244,0.580566,-0.052234,0.650907,0.755971,-0.024537,0.654302,0.737292,-0.050465,0.631844,0.773901,-0.053194,0.616404,0.805386,-0.04721,0.670195,0.793232,-0.029829,0.669621,0.77319,-0.047708,0.6474,0.794722,-0.043033,0.630151,0.817928,-0.034862,1,1,0
803,'2026/05/06 10:40:29:802',4,0.616048,0.904975,0,0.578028,0.868318,-0.025696,0.562924,0.810876,-0.039582,0.593309,0.773468,-0.052968,0.627125,0.750183,-0.064481,0.588105,0.725662,-0.021079,0.570581,0.662013,-0.040807,0.55893,0.618192,-0.055327,0.553758,0.582604,-0.063896,0.62383,0.732191,-0.02145,0.650727,0.661711,-0.037894,0.672273,0.615554,-0.047658,0.690744,0.580928,-0.052902,0.650166,0.758007,-0.02512,0.653789,0.736441,-0.050603,0.631707,0.77332,-0.053105,0.615575,0.805707,-0.047482,0.669567,0.794776,-0.03101,0.669816,0.771548,-0.048881,0.647572,0.79257,-0.044039,0.629188,0.815874,-0.036077,1,1,0
804,'2026/05/06 10:40:29:845',4,0.615453,0.903136,0,0.577956,0.867819,-0.025289,0.562152,0.812704,-0.039194,0.590849,0.774879,-0.052819,0.622712,0.749179,-0.064619,0.587137,0.725197,-0.020781,0.569641,0.662932,-0.040455,0.559108,0.619043,-0.054604,0.554881,0.58267,-0.062735,0.622787,0.729982,-0.021343,0.649843,0.660615,-0.038152,0.671409,0.614766,-0.047622,0.68964,0.580332,-0.05218,0.649587,0.754442,-0.025097,0.649764,0.735208,-0.051123,0.626624,0.774337,-0.053372,0.610351,0.808092,-0.046989,0.669672,0.790618,-0.031004,0.667986,0.769039,-0.048421,0.644585,0.791155,-0.042775,0.625427,0.815581,-0.033952,1,1,0
805,'2026/05/06 10:40:29:881',4,0.616826,0.905443,0,0.579085,0.867656,-0.024889,0.562116,0.81128,-0.038449,0.59106,0.772497,-0.051919,0.624212,0.748577,-0.063565,0.587016,0.725983,-0.018318,0.568844,0.66382,-0.038118,0.558545,0.620328,-0.052754,0.553948,0.584416,-0.061073,0.621849,0.731653,-0.019054,0.648555,0.661184,-0.036447,0.669514,0.614316,-0.046375,0.686917,0.579386,-0.050984,0.648079,0.756292,-0.023206,0.64971,0.735427,-0.050425,0.626629,0.773806,-0.053087,0.610563,0.807387,-0.046418,0.667886,0.792454,-0.02939,0.668339,0.767926,-0.047513,0.645116,0.790084,-0.041831,0.62627,0.815065,-0.03271,1,1,0
806,'2026/05/06 10:40:29:910',4,0.61631,0.904562,0,0.578533,0.866545,-0.025209,0.563244,0.809327,-0.038915,0.592864,0.770377,-0.052183,0.62572,0.745281,-0.063551,0.58734,0.724978,-0.019739,0.568704,0.662511,-0.039571,0.557379,0.619138,-0.054244,0.55225,0.583938,-0.06268,0.62206,0.730947,-0.020103,0.648253,0.661454,-0.036812,0.669368,0.615567,-0.046432,0.687447,0.581367,-0.051219,0.64811,0.756244,-0.023773,0.650674,0.734777,-0.049758,0.627897,0.771865,-0.051898,0.61207,0.804732,-0.045518,0.667758,0.793017,-0.029571,0.667827,0.769126,-0.047286,0.645095,0.790697,-0.04177,0.627145,0.81495,-0.033028,1,1,0
807,'2026/05/06 10:40:29:945',4,0.615727,0.904281,0,0.578087,0.866959,-0.025157,0.562166,0.810726,-0.038815,0.590815,0.772399,-0.052283,0.623635,0.747409,-0.063982,0.587959,0.725286,-0.01916,0.569836,0.663087,-0.038724,0.559219,0.619592,-0.053124,0.554646,0.583729,-0.061375,0.622793,0.730549,-0.019897,0.649692,0.660671,-0.036477,0.670689,0.614516,-0.046168,0.688163,0.57991,-0.050911,0.648853,0.75539,-0.023958,0.650856,0.734353,-0.050189,0.628201,0.773349,-0.052834,0.612091,0.807236,-0.046702,0.668379,0.791907,-0.030141,0.668245,0.768616,-0.047916,0.644786,0.790788,-0.042441,0.62536,0.815295,-0.033757,1,1,0
808,'2026/05/06 10:40:29:972',4,0.617557,0.904741,0,0.579454,0.867554,-0.024918,0.563699,0.810879,-0.03852,0.592734,0.772251,-0.05173,0.624659,0.747189,-0.063175,0.587265,0.725373,-0.020796,0.568705,0.661391,-0.040258,0.557373,0.617484,-0.054483,0.552458,0.582206,-0.062753,0.622358,0.731312,-0.021357,0.648476,0.661412,-0.038107,0.669823,0.615482,-0.047792,0.688091,0.581315,-0.052647,0.648394,0.756514,-0.025035,0.650883,0.735575,-0.051031,0.628082,0.772918,-0.053274,0.61214,0.80614,-0.047004,0.667702,0.793045,-0.030756,0.667867,0.769477,-0.048793,0.645393,0.791217,-0.043438,0.627354,0.815861,-0.034753,1,1,0
809,'2026/05/06 10:40:30:012',4,0.615001,0.903025,0,0.576838,0.867982,-0.026217,0.562517,0.811407,-0.040359,0.591814,0.774285,-0.053631,0.623395,0.74892,-0.065099,0.587023,0.725672,-0.02359,0.569467,0.662572,-0.04322,0.558551,0.618628,-0.057182,0.554212,0.58269,-0.065505,0.623041,0.731427,-0.023664,0.649295,0.662914,-0.040318,0.670528,0.616934,-0.049449,0.688846,0.582128,-0.053955,0.649582,0.756283,-0.026804,0.652172,0.735374,-0.052371,0.627983,0.772804,-0.053844,0.611365,0.805746,-0.047309,0.669192,0.792231,-0.032175,0.667146,0.771361,-0.050965,0.643853,0.793457,-0.046113,0.625985,0.817369,-0.03768,1,1,0
810,'2026/05/06 10:40:30:060',4,0.614784,0.903559,0,0.577495,0.868037,-0.025714,0.562569,0.811206,-0.039664,0.59215,0.773245,-0.053115,0.625139,0.749634,-0.064832,0.587335,0.72609,-0.02217,0.569257,0.662106,-0.041538,0.55892,0.617572,-0.055485,0.555245,0.580826,-0.063702,0.622642,0.731836,-0.022478,0.649549,0.662551,-0.039057,0.67125,0.616088,-0.048359,0.689575,0.581034,-0.052922,0.649301,0.756601,-0.025842,0.650827,0.736033,-0.05166,0.62721,0.774225,-0.053508,0.610768,0.807195,-0.046963,0.669323,0.792595,-0.031371,0.668374,0.769417,-0.049322,0.645006,0.792027,-0.043649,0.626335,0.816981,-0.034708,1,1,0
811,'2026/05/06 10:40:30:085',4,0.61598,0.904882,0,0.578252,0.868479,-0.026329,0.562172,0.813106,-0.040518,0.591497,0.773831,-0.054169,0.623925,0.746887,-0.066008,0.587132,0.725849,-0.020708,0.569609,0.663264,-0.041071,0.559119,0.619797,-0.055968,0.55422,0.583868,-0.064412,0.622334,0.731585,-0.020773,0.649518,0.661032,-0.037928,0.670595,0.614724,-0.047803,0.688431,0.579887,-0.052626,0.648619,0.756732,-0.02429,0.65098,0.735379,-0.050964,0.628324,0.773613,-0.053746,0.612701,0.806608,-0.047567,0.668426,0.793173,-0.02999,0.667582,0.769752,-0.047924,0.644766,0.792432,-0.042691,0.626908,0.817522,-0.034105,1,1,0
812,'2026/05/06 10:40:30:121',4,0.615428,0.906513,0,0.578285,0.869996,-0.024716,0.561029,0.814972,-0.038566,0.589163,0.777583,-0.052412,0.622229,0.754264,-0.064486,0.587865,0.725831,-0.019119,0.569289,0.662836,-0.038214,0.558206,0.619298,-0.052795,0.553605,0.583033,-0.061493,0.62268,0.731723,-0.019927,0.649552,0.661664,-0.036201,0.670976,0.615196,-0.046268,0.689282,0.579913,-0.051745,0.648605,0.75685,-0.023924,0.651184,0.73469,-0.049294,0.62844,0.772919,-0.052215,0.6121,0.806382,-0.046779,0.66819,0.79369,-0.030045,0.66853,0.770073,-0.047579,0.645451,0.791463,-0.042569,0.625903,0.815971,-0.034446,1,1,0
813,'2026/05/06 10:40:30:172',4,0.615488,0.904427,0,0.578057,0.868183,-0.024681,0.56233,0.812907,-0.038323,0.590496,0.775299,-0.05186,0.62236,0.751614,-0.063639,0.587806,0.727142,-0.020547,0.568966,0.663982,-0.040022,0.55734,0.619731,-0.054442,0.552671,0.583138,-0.062982,0.623078,0.732099,-0.021388,0.649283,0.662353,-0.037772,0.670794,0.615553,-0.047263,0.689239,0.580462,-0.052184,0.649617,0.756617,-0.025319,0.65142,0.735037,-0.050479,0.628402,0.772313,-0.052277,0.611721,0.805278,-0.046055,0.669289,0.792724,-0.031439,0.66854,0.769714,-0.048639,0.64538,0.791139,-0.042826,0.626123,0.815626,-0.034059,1,1,0
814,'2026/05/06 10:40:30:206',4,0.615488,0.904427,0,0.578057,0.868183,-0.024681,0.56233,0.812907,-0.038323,0.590496,0.775299,-0.05186,0.62236,0.751614,-0.063639,0.587806,0.727142,-0.020547,0.568966,0.663982,-0.040022,0.55734,0.619731,-0.054442,0.552671,0.583138,-0.062982,0.623078,0.732099,-0.021388,0.649283,0.662353,-0.037772,0.670794,0.615553,-0.047263,0.689239,0.580462,-0.052184,0.649617,0.756617,-0.025319,0.65142,0.735037,-0.050479,0.628402,0.772313,-0.052277,0.611721,0.805278,-0.046055,0.669289,0.792724,-0.031439,0.66854,0.769714,-0.048639,0.64538,0.791139,-0.042826,0.626123,0.815626,-0.034059,1,1,0
815,'2026/05/06 10:40:30:237',4,0.616862,0.906953,0,0.579667,0.868346,-0.024919,0.563875,0.811246,-0.038424,0.592609,0.771695,-0.051858,0.624583,0.745767,-0.063516,0.586931,0.726299,-0.018755,0.568168,0.663375,-0.038679,0.557032,0.619972,-0.053409,0.551923,0.584121,-0.061769,0.621828,0.731612,-0.019508,0.648226,0.661745,-0.036763,0.669425,0.615351,-0.0467,0.687102,0.580188,-0.051425,0.648112,0.756147,-0.023613,0.650694,0.734204,-0.050678,0.627754,0.773558,-0.053113,0.611498,0.807698,-0.046387,0.668032,0.792474,-0.029762,0.668871,0.76776,-0.047904,0.646001,0.790033,-0.042122,0.62724,0.814949,-0.03293,1,1,0
816,'2026/05/06 10:40:30:272',4,0.614915,0.903517,0,0.578626,0.867512,-0.025587,0.564092,0.810046,-0.039304,0.592815,0.770469,-0.05254,0.625458,0.744877,-0.063866,0.587336,0.725906,-0.021029,0.568516,0.66308,-0.040838,0.55641,0.618531,-0.055392,0.551343,0.581511,-0.064092,0.622912,0.731455,-0.021327,0.649979,0.663064,-0.037533,0.671706,0.616356,-0.046797,0.690585,0.580526,-0.051579,0.649544,0.756316,-0.024812,0.652355,0.734492,-0.049715,0.628312,0.771815,-0.050948,0.612018,0.804522,-0.044398,0.669161,0.792351,-0.030584,0.667274,0.769436,-0.048179,0.644367,0.790469,-0.042528,0.626797,0.813764,-0.033755,1,1,0
817,'2026/05/06 10:40:30:297',4,0.616788,0.903268,0,0.579665,0.866371,-0.024521,0.563857,0.811993,-0.038499,0.591855,0.774805,-0.052354,0.623762,0.751298,-0.06448,0.587096,0.725355,-0.020862,0.567909,0.662706,-0.040748,0.555833,0.618713,-0.055442,0.550263,0.582924,-0.064018,0.622422,0.730351,-0.021759,0.648631,0.660728,-0.038438,0.670095,0.614401,-0.048138,0.687987,0.580026,-0.05314,0.649053,0.754778,-0.025739,0.651532,0.734954,-0.050912,0.629507,0.771425,-0.053234,0.613013,0.803856,-0.047406,0.668971,0.790734,-0.031857,0.668987,0.769328,-0.04899,0.646402,0.790019,-0.043587,0.626995,0.813472,-0.035155,1,1,0
818,'2026/05/06 10:40:30:342',4,0.614975,0.904326,0,0.579525,0.866954,-0.024364,0.56557,0.811168,-0.037732,0.593605,0.772689,-0.051082,0.624808,0.746732,-0.062707,0.587568,0.726034,-0.019676,0.568944,0.664272,-0.039669,0.557788,0.620669,-0.054324,0.552571,0.584374,-0.062661,0.622097,0.730825,-0.020773,0.649015,0.661695,-0.037856,0.670647,0.615234,-0.047626,0.688932,0.580204,-0.052349,0.64855,0.755184,-0.024995,0.651263,0.734534,-0.051272,0.627774,0.772748,-0.05337,0.610965,0.806109,-0.046755,0.668608,0.791388,-0.031282,0.669362,0.768379,-0.048822,0.645885,0.789662,-0.042751,0.626222,0.81373,-0.033531,1,1,0
819,'2026/05/06 10:40:30:379',4,0.61721,0.904658,0,0.579571,0.866946,-0.025245,0.564636,0.81052,-0.039138,0.5937,0.771383,-0.052692,0.625862,0.746062,-0.064455,0.587469,0.725751,-0.020707,0.56881,0.663242,-0.041137,0.556637,0.619552,-0.056161,0.550552,0.584359,-0.064671,0.622719,0.731375,-0.021164,0.648841,0.661843,-0.038464,0.670474,0.615805,-0.048392,0.688661,0.581499,-0.053327,0.649165,0.756333,-0.024859,0.651181,0.735309,-0.051141,0.628783,0.772249,-0.053443,0.612464,0.805311,-0.047132,0.668926,0.792374,-0.030661,0.66857,0.768895,-0.048396,0.645855,0.789537,-0.042813,0.626843,0.813316,-0.034004,1,1,0
820,'2026/05/06 10:40:30:408',4,0.616067,0.90556,0,0.579536,0.866534,-0.024852,0.565553,0.808865,-0.037696,0.594216,0.768005,-0.05046,0.625002,0.739333,-0.061397,0.588457,0.725744,-0.018258,0.56955,0.663319,-0.037736,0.558209,0.619341,-0.052131,0.553127,0.582822,-0.060292,0.623033,0.73084,-0.018924,0.649633,0.661044,-0.035534,0.671514,0.614492,-0.045354,0.690018,0.579643,-0.050205,0.649465,0.755274,-0.022906,0.650815,0.734702,-0.048944,0.628049,0.772719,-0.051485,0.611441,0.806149,-0.045197,0.669513,0.791136,-0.029026,0.66935,0.767241,-0.046186,0.646428,0.788096,-0.040263,0.626888,0.812107,-0.031282,1,1,0
821,'2026/05/06 10:40:30:440',4,0.616346,0.904459,0,0.580855,0.865946,-0.024573,0.56558,0.809457,-0.038054,0.59366,0.769952,-0.051496,0.625109,0.742519,-0.063234,0.588329,0.725065,-0.018903,0.570116,0.663015,-0.039185,0.55915,0.62032,-0.054108,0.553499,0.585546,-0.062373,0.623249,0.730333,-0.019794,0.65054,0.659653,-0.036434,0.67167,0.614094,-0.046292,0.689128,0.580029,-0.051189,0.649419,0.755737,-0.023982,0.652098,0.733124,-0.050028,0.629773,0.77094,-0.052903,0.613674,0.80357,-0.047029,0.668933,0.792957,-0.030191,0.668534,0.769082,-0.047467,0.645799,0.789581,-0.04201,0.626699,0.812514,-0.033444,1,1,0
822,'2026/05/06 10:40:30:470',4,0.616317,0.904501,0,0.579838,0.867657,-0.02569,0.564429,0.812108,-0.039887,0.59254,0.77316,-0.053683,0.624505,0.746982,-0.065621,0.587657,0.725532,-0.021254,0.568932,0.662691,-0.041221,0.557531,0.618898,-0.055789,0.552643,0.582641,-0.064282,0.623122,0.730469,-0.021485,0.649868,0.662468,-0.038259,0.671329,0.616328,-0.047764,0.689619,0.581873,-0.052504,0.649714,0.754864,-0.024932,0.652705,0.734125,-0.050512,0.629326,0.771359,-0.052387,0.612935,0.804807,-0.045952,0.669657,0.790894,-0.03059,0.669021,0.76934,-0.048121,0.646104,0.790683,-0.042659,0.627887,0.815027,-0.03391,1,1,0
823,'2026/05/06 10:40:30:501',4,0.618173,0.905903,0,0.580912,0.867537,-0.024352,0.564893,0.811875,-0.037685,0.593337,0.772267,-0.051001,0.625794,0.746663,-0.06254,0.587981,0.72573,-0.017899,0.569119,0.663918,-0.037241,0.557743,0.620938,-0.051857,0.552477,0.584762,-0.060307,0.623149,0.73033,-0.018582,0.650034,0.661282,-0.035146,0.671298,0.614872,-0.045177,0.689303,0.579884,-0.05024,0.649303,0.75462,-0.022528,0.651001,0.732933,-0.048541,0.628697,0.77014,-0.051572,0.613059,0.803624,-0.045719,0.668972,0.790606,-0.028497,0.668708,0.767479,-0.045907,0.645741,0.788885,-0.040692,0.627045,0.813737,-0.032183,1,1,0
824,'2026/05/06 10:40:30:536',4,0.616278,0.905344,0,0.580435,0.867544,-0.025349,0.565706,0.810105,-0.039205,0.593835,0.769885,-0.052784,0.625465,0.741745,-0.064586,0.587261,0.725153,-0.02004,0.568729,0.662828,-0.04003,0.55782,0.618569,-0.054702,0.553573,0.581804,-0.063333,0.622035,0.730591,-0.020688,0.649253,0.66216,-0.03767,0.671123,0.616004,-0.047337,0.690072,0.581209,-0.052148,0.648637,0.755204,-0.024588,0.652489,0.73229,-0.050945,0.628529,0.771124,-0.052497,0.612252,0.805341,-0.045592,0.668942,0.791391,-0.030647,0.668885,0.766115,-0.048959,0.645715,0.788994,-0.04301,0.627753,0.814673,-0.033746,1,1,0
825,'2026/05/06 10:40:30:566',4,0.613907,0.902529,0,0.579404,0.866098,-0.025461,0.567117,0.807855,-0.038752,0.596021,0.768202,-0.051733,0.62787,0.740935,-0.062926,0.587928,0.725162,-0.021109,0.569345,0.662653,-0.041228,0.557727,0.618984,-0.055438,0.552624,0.582992,-0.063377,0.622787,0.730693,-0.021618,0.650511,0.661667,-0.038468,0.672548,0.614951,-0.048016,0.691475,0.5798,-0.052626,0.649608,0.755657,-0.025265,0.652349,0.73411,-0.051102,0.628613,0.771589,-0.053034,0.612195,0.804239,-0.046487,0.669719,0.791729,-0.031073,0.668395,0.767237,-0.048377,0.645975,0.788278,-0.042246,0.628156,0.812056,-0.033045,1,1,0
826,'2026/05/06 10:40:30:597',4,0.613907,0.902529,0,0.579404,0.866098,-0.025461,0.567117,0.807855,-0.038752,0.596021,0.768202,-0.051733,0.62787,0.740935,-0.062926,0.587928,0.725162,-0.021109,0.569345,0.662653,-0.041228,0.557727,0.618984,-0.055438,0.552624,0.582992,-0.063377,0.622787,0.730693,-0.021618,0.650511,0.661667,-0.038468,0.672548,0.614951,-0.048016,0.691475,0.5798,-0.052626,0.649608,0.755657,-0.025265,0.652349,0.73411,-0.051102,0.628613,0.771589,-0.053034,0.612195,0.804239,-0.046487,0.669719,0.791729,-0.031073,0.668395,0.767237,-0.048377,0.645975,0.788278,-0.042246,0.628156,0.812056,-0.033045,1,1,0
827,'2026/05/06 10:40:30:629',4,0.616373,0.905406,0,0.579469,0.867188,-0.024669,0.56532,0.809726,-0.037804,0.595007,0.770505,-0.050831,0.627235,0.744987,-0.062115,0.587957,0.725959,-0.019137,0.569487,0.663247,-0.038473,0.558375,0.619419,-0.052708,0.553587,0.583133,-0.061004,0.622927,0.731169,-0.019874,0.649777,0.661692,-0.036406,0.67104,0.615344,-0.045978,0.689186,0.580936,-0.05077,0.649371,0.755957,-0.023809,0.651135,0.734218,-0.049532,0.627674,0.770884,-0.051687,0.611023,0.804002,-0.045376,0.668983,0.792283,-0.02988,0.668414,0.768425,-0.047302,0.64503,0.788896,-0.041715,0.625784,0.812847,-0.032978,1,1,0
828,'2026/05/06 10:40:30:660',4,0.616806,0.90564,0,0.580033,0.867446,-0.024835,0.563864,0.811456,-0.038202,0.591736,0.770912,-0.051536,0.623406,0.742961,-0.063092,0.587551,0.725215,-0.017627,0.56867,0.663303,-0.036997,0.557398,0.6203,-0.05165,0.552245,0.584799,-0.060071,0.622226,0.730205,-0.018228,0.64901,0.659922,-0.034305,0.66966,0.61386,-0.044099,0.687178,0.579622,-0.049199,0.648168,0.754977,-0.022282,0.651651,0.732014,-0.047862,0.629578,0.769094,-0.051089,0.613794,0.802359,-0.045634,0.667889,0.791192,-0.028431,0.668512,0.766791,-0.04559,0.645908,0.787286,-0.040658,0.627055,0.811411,-0.032597,1,1,0
829,'2026/05/06 10:40:30:690',4,0.615646,0.902997,0,0.579524,0.865578,-0.024674,0.565298,0.8107,-0.038667,0.593503,0.772509,-0.052568,0.625307,0.747564,-0.064746,0.587266,0.725221,-0.021424,0.568339,0.662535,-0.04155,0.556771,0.618839,-0.056168,0.551544,0.582877,-0.064538,0.622192,0.729941,-0.02232,0.648868,0.660853,-0.039505,0.670446,0.614436,-0.049245,0.68881,0.579713,-0.054128,0.648892,0.75448,-0.02622,0.651397,0.733843,-0.05194,0.628048,0.770566,-0.053801,0.61107,0.803492,-0.04738,0.668914,0.790426,-0.032231,0.669331,0.767559,-0.049103,0.646324,0.787495,-0.04298,0.626927,0.810744,-0.033965,1,1,0
830,'2026/05/06 10:40:30:721',4,0.615645,0.902904,0,0.579987,0.864815,-0.024519,0.565786,0.808503,-0.037628,0.594277,0.769522,-0.05057,0.624962,0.741975,-0.061755,0.587418,0.724754,-0.019021,0.569187,0.662534,-0.039162,0.558058,0.619731,-0.053776,0.552294,0.585131,-0.061783,0.62189,0.729909,-0.019557,0.649087,0.6604,-0.036071,0.670032,0.6147,-0.04575,0.68787,0.581048,-0.050544,0.648262,0.754463,-0.023326,0.652745,0.73293,-0.048626,0.630002,0.769502,-0.050905,0.614126,0.801535,-0.044721,0.66851,0.790253,-0.029175,0.667759,0.767344,-0.04567,0.645934,0.789052,-0.039886,0.629069,0.813536,-0.031091,1,1,0
831,'2026/05/06 10:40:30:752',4,0.617144,0.902477,0,0.581983,0.864485,-0.025818,0.566951,0.808253,-0.039607,0.596253,0.768907,-0.05298,0.627062,0.740489,-0.064517,0.586377,0.725493,-0.020119,0.567927,0.66126,-0.041049,0.556993,0.618582,-0.055979,0.551094,0.584243,-0.064118,0.62117,0.730276,-0.020215,0.648149,0.661063,-0.038052,0.669012,0.614548,-0.048792,0.686817,0.579898,-0.054021,0.647843,0.754838,-0.023589,0.652874,0.734345,-0.05025,0.629608,0.770874,-0.052969,0.614179,0.802491,-0.046586,0.668565,0.791042,-0.02904,0.667152,0.768497,-0.046668,0.645213,0.790193,-0.041234,0.629337,0.814029,-0.032288,1,1,0
832,'2026/05/06 10:40:30:784',4,0.616887,0.900141,0,0.580649,0.863427,-0.024453,0.56675,0.80733,-0.038423,0.594865,0.767573,-0.051977,0.627027,0.742889,-0.06377,0.587787,0.726197,-0.021904,0.568912,0.661968,-0.042634,0.556257,0.616917,-0.057711,0.550461,0.58086,-0.066514,0.622413,0.73189,-0.022507,0.648123,0.664039,-0.039485,0.670067,0.618136,-0.049365,0.689195,0.583649,-0.054488,0.649081,0.755715,-0.026,0.651665,0.73351,-0.051007,0.628203,0.769467,-0.052154,0.612283,0.802031,-0.045539,0.669469,0.790494,-0.031575,0.66788,0.765695,-0.04909,0.645241,0.787504,-0.042979,0.628331,0.812423,-0.03377,1,1,0
833,'2026/05/06 10:40:30:820',4,0.616818,0.901236,0,0.580814,0.864838,-0.024583,0.565975,0.808965,-0.038984,0.593498,0.770456,-0.052952,0.625872,0.747048,-0.065112,0.587331,0.726679,-0.023672,0.568418,0.662172,-0.044428,0.556134,0.617905,-0.0591,0.550547,0.582723,-0.067564,0.622236,0.731829,-0.024323,0.647958,0.663461,-0.041734,0.669498,0.617327,-0.051368,0.688261,0.582922,-0.056283,0.648939,0.755646,-0.027748,0.652158,0.732913,-0.053142,0.628956,0.768846,-0.05425,0.612787,0.801999,-0.04755,0.669217,0.790695,-0.033227,0.668221,0.76696,-0.050642,0.645725,0.787628,-0.044709,0.628476,0.811704,-0.035698,1,1,0
834,'2026/05/06 10:40:30:845',4,0.617838,0.899751,0,0.580647,0.863751,-0.024677,0.565875,0.807923,-0.038846,0.593434,0.768624,-0.052349,0.624888,0.743774,-0.064064,0.587363,0.726321,-0.023171,0.568583,0.663369,-0.043214,0.556501,0.620267,-0.057345,0.55094,0.585698,-0.065421,0.622328,0.731798,-0.023635,0.647199,0.664219,-0.040534,0.668408,0.618179,-0.04976,0.686572,0.583439,-0.05431,0.648773,0.75551,-0.026913,0.651242,0.732585,-0.052018,0.629096,0.768844,-0.053024,0.613748,0.801281,-0.046218,0.668894,0.790339,-0.032201,0.667478,0.765071,-0.049652,0.645456,0.786963,-0.043617,0.628756,0.811649,-0.034447,1,1,0
835,'2026/05/06 10:40:30:875',4,0.618454,0.902199,0,0.580008,0.865604,-0.024922,0.564307,0.809353,-0.039122,0.592383,0.769305,-0.0527,0.625549,0.745852,-0.064412,0.587167,0.727092,-0.022305,0.567722,0.663147,-0.041941,0.555231,0.619987,-0.055964,0.550474,0.585961,-0.064358,0.622431,0.73199,-0.022765,0.646623,0.66361,-0.04007,0.667838,0.617589,-0.049968,0.687086,0.583388,-0.055243,0.648803,0.755569,-0.026148,0.652346,0.732028,-0.051433,0.629223,0.766967,-0.052913,0.613054,0.799817,-0.04676,0.668821,0.789838,-0.031645,0.668124,0.766487,-0.049884,0.645789,0.785872,-0.045127,0.628654,0.808694,-0.037012,1,1,0
836,'2026/05/06 10:40:30:908',4,0.618029,0.903816,0,0.580004,0.865737,-0.024084,0.565851,0.808816,-0.037622,0.593803,0.768127,-0.050655,0.625062,0.741569,-0.061919,0.586948,0.727148,-0.021099,0.568,0.663931,-0.040789,0.555633,0.620428,-0.054866,0.550744,0.586081,-0.063193,0.622316,0.732151,-0.021896,0.646867,0.663582,-0.038802,0.667735,0.617733,-0.04832,0.686703,0.583644,-0.053278,0.648803,0.756291,-0.025633,0.653202,0.731427,-0.050825,0.630666,0.767441,-0.051805,0.615074,0.800887,-0.045235,0.66855,0.791444,-0.031404,0.668285,0.766511,-0.04946,0.646125,0.787218,-0.04407,0.629279,0.810888,-0.035447,1,1,0
837,'2026/05/06 10:40:30:939',4,0.617718,0.903712,0,0.57942,0.867452,-0.025061,0.564807,0.810262,-0.038882,0.593548,0.770115,-0.051924,0.625582,0.744651,-0.06316,0.586238,0.727638,-0.022205,0.567077,0.663944,-0.041478,0.554802,0.62086,-0.055381,0.549901,0.586388,-0.063708,0.621861,0.732545,-0.022447,0.646227,0.663438,-0.038976,0.667295,0.617261,-0.048469,0.686267,0.582619,-0.053558,0.648707,0.756174,-0.025624,0.652796,0.731108,-0.050488,0.630511,0.767112,-0.0519,0.614753,0.800427,-0.045804,0.669185,0.790734,-0.030913,0.66874,0.76576,-0.049057,0.646272,0.786683,-0.044114,0.628798,0.81049,-0.035926,1,1,0
838,'2026/05/06 10:40:30:978',4,0.617718,0.903712,0,0.57942,0.867452,-0.025061,0.564807,0.810262,-0.038882,0.593548,0.770115,-0.051924,0.625582,0.744651,-0.06316,0.586238,0.727638,-0.022205,0.567077,0.663944,-0.041478,0.554802,0.62086,-0.055381,0.549901,0.586388,-0.063708,0.621861,0.732545,-0.022447,0.646227,0.663438,-0.038976,0.667295,0.617261,-0.048469,0.686267,0.582619,-0.053558,0.648707,0.756174,-0.025624,0.652796,0.731108,-0.050488,0.630511,0.767112,-0.0519,0.614753,0.800427,-0.045804,0.669185,0.790734,-0.030913,0.66874,0.76576,-0.049057,0.646272,0.786683,-0.044114,0.628798,0.81049,-0.035926,1,1,0
839,'2026/05/06 10:40:31:018',4,0.616784,0.902698,0,0.579497,0.867233,-0.024167,0.564156,0.812184,-0.038376,0.59139,0.773626,-0.052029,0.623278,0.749991,-0.063915,0.585417,0.727638,-0.023176,0.566282,0.664221,-0.042704,0.553996,0.621071,-0.056603,0.549316,0.586747,-0.064974,0.621,0.732313,-0.02403,0.645766,0.66405,-0.040949,0.666917,0.617902,-0.050516,0.686029,0.583416,-0.05571,0.64785,0.756182,-0.027581,0.652886,0.732387,-0.052164,0.629997,0.766701,-0.053158,0.61367,0.79865,-0.046962,0.668124,0.791163,-0.033193,0.66801,0.767822,-0.050798,0.64584,0.788034,-0.045494,0.62872,0.811264,-0.037142,1,1,0
840,'2026/05/06 10:40:31:049',4,0.61806,0.904607,0,0.579453,0.870154,-0.024862,0.563306,0.814913,-0.039362,0.590695,0.775905,-0.053016,0.623811,0.753434,-0.064659,0.585941,0.728587,-0.023769,0.566834,0.663678,-0.043321,0.554616,0.619978,-0.057171,0.549548,0.585043,-0.065517,0.621648,0.732884,-0.024001,0.645942,0.665526,-0.040824,0.667156,0.619535,-0.050482,0.686129,0.584221,-0.055546,0.648458,0.755861,-0.026904,0.651573,0.732738,-0.051388,0.628714,0.767955,-0.052949,0.61318,0.800443,-0.04698,0.669202,0.789985,-0.031872,0.666944,0.768365,-0.049944,0.64437,0.789575,-0.045326,0.627962,0.813578,-0.037161,1,1,0
841,'2026/05/06 10:40:31:079',4,0.61768,0.904894,0,0.578569,0.867903,-0.024084,0.56502,0.809375,-0.037682,0.594962,0.769314,-0.050541,0.627695,0.744634,-0.061669,0.586503,0.728404,-0.022747,0.567794,0.66373,-0.042178,0.55586,0.620357,-0.055848,0.551177,0.585353,-0.064049,0.621999,0.734307,-0.023431,0.646941,0.665945,-0.040959,0.668484,0.6195,-0.051008,0.688065,0.583661,-0.056212,0.648607,0.758269,-0.02673,0.652404,0.733016,-0.052539,0.628592,0.770026,-0.053727,0.613082,0.803598,-0.047079,0.669077,0.792966,-0.031904,0.667911,0.768018,-0.050886,0.645162,0.789581,-0.045762,0.628942,0.813434,-0.037073,1,1,0
842,'2026/05/06 10:40:31:111',4,0.618922,0.90463,0,0.580266,0.86938,-0.02499,0.565293,0.812436,-0.039232,0.594084,0.772846,-0.052601,0.626861,0.749316,-0.064217,0.586947,0.729106,-0.024286,0.568426,0.66495,-0.044001,0.556671,0.62146,-0.05785,0.55173,0.586546,-0.066108,0.622546,0.734702,-0.024843,0.647725,0.66534,-0.041842,0.668919,0.618936,-0.05121,0.687459,0.583926,-0.056074,0.649223,0.75896,-0.028134,0.65323,0.73399,-0.053637,0.630438,0.769648,-0.054807,0.614746,0.80194,-0.048303,0.669377,0.794162,-0.033416,0.668954,0.768467,-0.052083,0.646506,0.790478,-0.046737,0.629698,0.815364,-0.038028,1,1,0
843,'2026/05/06 10:40:31:141',4,0.617979,0.906867,0,0.58028,0.870885,-0.024423,0.565379,0.813828,-0.038836,0.593719,0.774076,-0.052683,0.626982,0.750351,-0.064709,0.588221,0.729475,-0.023858,0.56879,0.662814,-0.044186,0.55622,0.618319,-0.05863,0.550955,0.583114,-0.06726,0.623933,0.735269,-0.02469,0.649108,0.665459,-0.04203,0.670805,0.619296,-0.051939,0.689878,0.584034,-0.057161,0.650658,0.759845,-0.028184,0.653316,0.733644,-0.05373,0.630163,0.771296,-0.055112,0.614954,0.80572,-0.048703,0.670685,0.795613,-0.033618,0.668967,0.768712,-0.052236,0.645934,0.790079,-0.046932,0.629067,0.814904,-0.038207,1,1,0
844,'2026/05/06 10:40:31:182',4,0.618096,0.906808,0,0.579762,0.869771,-0.024994,0.565329,0.813398,-0.039289,0.594039,0.774126,-0.052931,0.626479,0.749545,-0.064778,0.587772,0.72915,-0.02332,0.568997,0.663395,-0.043412,0.556341,0.619545,-0.057872,0.550929,0.584917,-0.066463,0.623238,0.734358,-0.023895,0.648816,0.66439,-0.040872,0.670663,0.618105,-0.050671,0.690217,0.583152,-0.056016,0.64969,0.758854,-0.027319,0.654411,0.733285,-0.052588,0.631572,0.769622,-0.053917,0.615857,0.80307,-0.047675,0.669586,0.794491,-0.032827,0.669462,0.768848,-0.051127,0.64695,0.789842,-0.045905,0.630017,0.81407,-0.037484,1,1,0
845,'2026/05/06 10:40:31:219',4,0.619212,0.905743,0,0.581436,0.866945,-0.024971,0.56686,0.810364,-0.038623,0.595316,0.77061,-0.051839,0.626019,0.74261,-0.06323,0.588199,0.725299,-0.020373,0.568599,0.662869,-0.040418,0.556575,0.619678,-0.054793,0.551013,0.585195,-0.062798,0.624291,0.730927,-0.020802,0.649542,0.661663,-0.03783,0.671448,0.616214,-0.047558,0.690774,0.583151,-0.052332,0.651077,0.755969,-0.024453,0.652716,0.735405,-0.050659,0.630228,0.771244,-0.053341,0.614665,0.804249,-0.047319,0.671089,0.7919,-0.030139,0.668653,0.770678,-0.04809,0.646367,0.791317,-0.043282,0.62913,0.815447,-0.03495,1,1,0
846,'2026/05/06 10:40:31:249',4,0.619062,0.905083,0,0.581191,0.868879,-0.025295,0.565863,0.813105,-0.040101,0.594604,0.774012,-0.054137,0.627473,0.749346,-0.066308,0.587048,0.727971,-0.023983,0.568246,0.663022,-0.044218,0.556255,0.619436,-0.058359,0.550982,0.585045,-0.066509,0.623189,0.732905,-0.024385,0.648917,0.664056,-0.041611,0.670554,0.617853,-0.051235,0.689723,0.583144,-0.056003,0.65008,0.757417,-0.027599,0.653529,0.735597,-0.052994,0.630759,0.771523,-0.05454,0.615355,0.803921,-0.048113,0.670333,0.793693,-0.032836,0.668979,0.771317,-0.05071,0.646609,0.79315,-0.045277,0.630097,0.817678,-0.036448,1,1,0
847,'2026/05/06 10:40:31:282',4,0.619757,0.908918,0,0.582333,0.870179,-0.024921,0.56718,0.813132,-0.038788,0.594952,0.77306,-0.052266,0.626292,0.746407,-0.063784,0.589046,0.727991,-0.020538,0.5688,0.663832,-0.040317,0.55625,0.619585,-0.054766,0.550512,0.584342,-0.063035,0.624314,0.733787,-0.021062,0.649136,0.664366,-0.03779,0.670934,0.617739,-0.0475,0.689716,0.583393,-0.052465,0.650701,0.758785,-0.024737,0.653135,0.73602,-0.050348,0.630855,0.772037,-0.05252,0.614945,0.80553,-0.04635,0.670679,0.794498,-0.030497,0.669861,0.770338,-0.048222,0.647592,0.790697,-0.042976,0.630152,0.81509,-0.034401,1,1,0
848,'2026/05/06 10:40:31:314',4,0.619484,0.906882,0,0.581659,0.870269,-0.024712,0.565954,0.814813,-0.039254,0.593841,0.776053,-0.053216,0.626029,0.75209,-0.065297,0.588641,0.728536,-0.022629,0.569034,0.663344,-0.042681,0.555978,0.619523,-0.057391,0.550041,0.585479,-0.065975,0.624327,0.733932,-0.02321,0.648582,0.66485,-0.039761,0.670175,0.618752,-0.049517,0.689412,0.584452,-0.054723,0.651067,0.758686,-0.026646,0.653666,0.735561,-0.051287,0.631813,0.77152,-0.052857,0.616653,0.804631,-0.046774,0.671347,0.794995,-0.032135,0.6701,0.769944,-0.0496,0.647708,0.792009,-0.043947,0.630654,0.81775,-0.035183,1,1,0
849,'2026/05/06 10:40:31:344',4,0.62036,0.907518,0,0.581994,0.870885,-0.024563,0.566468,0.814519,-0.038698,0.595391,0.774805,-0.052241,0.628328,0.750431,-0.063937,0.58855,0.729751,-0.021732,0.568847,0.664577,-0.041216,0.556108,0.620728,-0.055595,0.551017,0.58635,-0.064388,0.624315,0.734442,-0.022455,0.648837,0.664568,-0.038835,0.670299,0.618453,-0.048619,0.690137,0.584298,-0.054134,0.650914,0.759002,-0.026056,0.655265,0.732491,-0.050268,0.633268,0.7682,-0.051216,0.618309,0.801534,-0.045122,0.670793,0.795209,-0.031809,0.670197,0.768899,-0.049643,0.648288,0.79066,-0.044314,0.632148,0.815868,-0.035913,1,1,0
850,'2026/05/06 10:40:31:375',4,0.62036,0.907518,0,0.581994,0.870885,-0.024563,0.566468,0.814519,-0.038698,0.595391,0.774805,-0.052241,0.628328,0.750431,-0.063937,0.58855,0.729751,-0.021732,0.568847,0.664577,-0.041216,0.556108,0.620728,-0.055595,0.551017,0.58635,-0.064388,0.624315,0.734442,-0.022455,0.648837,0.664568,-0.038835,0.670299,0.618453,-0.048619,0.690137,0.584298,-0.054134,0.650914,0.759002,-0.026056,0.655265,0.732491,-0.050268,0.633268,0.7682,-0.051216,0.618309,0.801534,-0.045122,0.670793,0.795209,-0.031809,0.670197,0.768899,-0.049643,0.648288,0.79066,-0.044314,0.632148,0.815868,-0.035913,1,1,0
851,'2026/05/06 10:40:31:405',4,0.620931,0.906619,0,0.582825,0.86975,-0.024029,0.56741,0.813476,-0.03806,0.59595,0.774711,-0.051597,0.628156,0.749974,-0.063349,0.589257,0.728859,-0.021845,0.569168,0.664709,-0.041329,0.556421,0.621352,-0.055615,0.550876,0.587364,-0.064111,0.62494,0.734188,-0.022817,0.649149,0.66519,-0.039276,0.670723,0.619406,-0.049095,0.690156,0.585237,-0.054431,0.651557,0.758898,-0.026573,0.655259,0.734487,-0.051055,0.633649,0.770761,-0.052521,0.618731,0.803952,-0.046541,0.671628,0.794991,-0.032335,0.670947,0.770043,-0.049799,0.649138,0.791251,-0.044373,0.632534,0.815641,-0.035888,1,1,0
852,'2026/05/06 10:40:31:438',4,0.620872,0.906412,0,0.583517,0.870364,-0.025095,0.568143,0.813689,-0.039585,0.597317,0.774287,-0.053225,0.631706,0.751615,-0.064977,0.5891,0.730048,-0.023177,0.568884,0.664676,-0.042523,0.556076,0.620765,-0.056293,0.550596,0.58592,-0.064602,0.62448,0.735465,-0.023537,0.648759,0.666113,-0.03998,0.669898,0.620116,-0.049321,0.688815,0.585623,-0.054254,0.650959,0.760196,-0.026698,0.656047,0.735073,-0.051482,0.63405,0.771349,-0.052619,0.618964,0.804027,-0.046266,0.671058,0.79639,-0.031897,0.671066,0.770666,-0.050234,0.649624,0.792695,-0.044982,0.633862,0.817138,-0.036365,1,1,0
853,'2026/05/06 10:40:31:468',4,0.620837,0.907508,0,0.583638,0.871085,-0.024605,0.569065,0.812895,-0.038587,0.598228,0.771876,-0.0517,0.63202,0.748459,-0.062975,0.589593,0.72969,-0.02368,0.568954,0.662814,-0.043471,0.55569,0.617782,-0.057786,0.549855,0.582008,-0.066522,0.624798,0.735603,-0.024053,0.648915,0.665815,-0.040473,0.670359,0.620171,-0.049858,0.68934,0.585227,-0.054981,0.651369,0.760391,-0.02709,0.656896,0.734425,-0.05193,0.634338,0.772434,-0.052559,0.619096,0.806211,-0.045885,0.671559,0.796445,-0.03209,0.671044,0.770162,-0.050791,0.648758,0.792386,-0.045206,0.632531,0.816878,-0.036266,1,1,0
854,'2026/05/06 10:40:31:499',4,0.61877,0.905078,0,0.582293,0.869653,-0.024623,0.567288,0.814611,-0.039188,0.595347,0.776928,-0.053215,0.629063,0.755222,-0.065324,0.587857,0.728879,-0.023396,0.568401,0.664658,-0.043626,0.555636,0.62061,-0.0582,0.549618,0.585346,-0.066794,0.623008,0.733765,-0.024056,0.647994,0.665356,-0.041045,0.669401,0.619024,-0.050769,0.687817,0.584166,-0.055918,0.649919,0.757406,-0.027459,0.654294,0.735429,-0.052479,0.63202,0.77268,-0.053513,0.616317,0.806026,-0.046895,0.670596,0.792217,-0.032926,0.670848,0.768368,-0.050484,0.649064,0.790714,-0.044494,0.632412,0.815763,-0.035407,1,1,0
855,'2026/05/06 10:40:31:530',4,0.618028,0.90564,0,0.581002,0.86886,-0.023376,0.5675,0.811436,-0.036764,0.596345,0.771436,-0.049671,0.628888,0.747519,-0.060878,0.587488,0.729349,-0.022758,0.567662,0.663457,-0.042748,0.554507,0.618462,-0.057295,0.548466,0.58237,-0.06605,0.622403,0.734644,-0.023765,0.647138,0.665026,-0.040264,0.668676,0.61897,-0.049744,0.687334,0.583987,-0.054867,0.649162,0.758561,-0.027342,0.654121,0.733589,-0.052049,0.631593,0.772143,-0.052565,0.616183,0.806636,-0.045762,0.669702,0.793612,-0.032861,0.669579,0.767915,-0.051029,0.647269,0.79056,-0.045031,0.630662,0.81572,-0.035863,1,1,0
856,'2026/05/06 10:40:31:572',4,0.618048,0.905984,0,0.580379,0.869659,-0.024406,0.56699,0.810628,-0.037683,0.596953,0.769336,-0.050186,0.630192,0.745379,-0.060887,0.586887,0.729356,-0.022426,0.566731,0.662968,-0.041603,0.553587,0.617749,-0.055423,0.547785,0.58166,-0.063808,0.621838,0.734544,-0.022725,0.646141,0.665468,-0.038934,0.667846,0.619276,-0.04804,0.686858,0.584249,-0.052818,0.648328,0.75837,-0.025755,0.652533,0.734434,-0.05076,0.629467,0.772054,-0.051474,0.614114,0.805514,-0.04462,0.668541,0.793153,-0.030779,0.668222,0.767515,-0.049609,0.645414,0.790444,-0.044103,0.628862,0.815604,-0.035152,1,1,0
857,'2026/05/06 10:40:31:615',4,0.617258,0.904821,0,0.580236,0.868822,-0.024727,0.565553,0.812108,-0.038979,0.593166,0.77207,-0.052643,0.626264,0.748036,-0.064473,0.58529,0.729224,-0.02352,0.566,0.664406,-0.044109,0.553688,0.620027,-0.058555,0.547982,0.584118,-0.067022,0.620525,0.734288,-0.024178,0.646066,0.665571,-0.041733,0.667089,0.618702,-0.051448,0.684906,0.583213,-0.056299,0.647448,0.757978,-0.027626,0.651488,0.733889,-0.053806,0.628958,0.771784,-0.055039,0.614045,0.805593,-0.048061,0.668173,0.792756,-0.033015,0.667534,0.767889,-0.051491,0.64566,0.79071,-0.045734,0.630016,0.816187,-0.036495,1,1,0
858,'2026/05/06 10:40:31:657',4,0.616405,0.904131,0,0.578713,0.868362,-0.024795,0.56399,0.812289,-0.038796,0.592771,0.773736,-0.052282,0.62502,0.749467,-0.063949,0.585393,0.728129,-0.022529,0.565886,0.663936,-0.042826,0.553042,0.620152,-0.057588,0.546678,0.585157,-0.066219,0.620433,0.732684,-0.023031,0.645043,0.663982,-0.039989,0.665827,0.617389,-0.049595,0.683717,0.582295,-0.05454,0.647114,0.756423,-0.026445,0.650675,0.733819,-0.051835,0.628183,0.771662,-0.05306,0.612692,0.805579,-0.046353,0.667614,0.791727,-0.031943,0.667687,0.767143,-0.050037,0.645383,0.789556,-0.044335,0.62827,0.81498,-0.035304,1,1,0
859,'2026/05/06 10:40:31:686',4,0.617656,0.904822,0,0.579813,0.866984,-0.023974,0.563913,0.812183,-0.037873,0.592006,0.773473,-0.051593,0.624438,0.749564,-0.0635,0.585422,0.726989,-0.020184,0.564727,0.664822,-0.040278,0.551546,0.621041,-0.055134,0.545187,0.585882,-0.063669,0.620539,0.731371,-0.02112,0.644866,0.662421,-0.037898,0.665955,0.616047,-0.04742,0.684069,0.582116,-0.052249,0.64714,0.755157,-0.025108,0.649534,0.733738,-0.05043,0.627981,0.770447,-0.052065,0.612426,0.80426,-0.045606,0.667508,0.790288,-0.031153,0.667059,0.766871,-0.048165,0.645232,0.788081,-0.042187,0.627904,0.812764,-0.033206,1,1,0
860,'2026/05/06 10:40:31:724',4,0.61692,0.904583,0,0.579683,0.867063,-0.023989,0.565212,0.80998,-0.037604,0.593748,0.769986,-0.050887,0.625968,0.745326,-0.0624,0.585344,0.728189,-0.021212,0.56502,0.664011,-0.04123,0.551633,0.620463,-0.055745,0.545234,0.585801,-0.064161,0.620045,0.733042,-0.022087,0.644508,0.663116,-0.038936,0.665421,0.61657,-0.04837,0.68373,0.582025,-0.053244,0.646412,0.75728,-0.02587,0.650984,0.732509,-0.051309,0.628602,0.769396,-0.052242,0.612694,0.803098,-0.045373,0.66665,0.79298,-0.031663,0.667023,0.766872,-0.049469,0.644914,0.788537,-0.043452,0.627661,0.813497,-0.034323,1,1,0
861,'2026/05/06 10:40:31:751',4,0.617242,0.905219,0,0.580465,0.867434,-0.024467,0.565136,0.811324,-0.037856,0.592967,0.770949,-0.051071,0.624093,0.744003,-0.062441,0.585444,0.727418,-0.019278,0.565814,0.664629,-0.039639,0.553062,0.62151,-0.054608,0.54628,0.58644,-0.062946,0.619906,0.731691,-0.019785,0.645165,0.661529,-0.036255,0.665296,0.615386,-0.045826,0.68252,0.581007,-0.05068,0.64642,0.755876,-0.02349,0.650576,0.7326,-0.048519,0.629023,0.77029,-0.050131,0.613859,0.803718,-0.043639,0.66684,0.791648,-0.029327,0.666406,0.766431,-0.046079,0.645042,0.788428,-0.040081,0.628588,0.813642,-0.031076,1,1,0
862,'2026/05/06 10:40:31:779',4,0.617242,0.905219,0,0.580465,0.867434,-0.024467,0.565136,0.811324,-0.037856,0.592967,0.770949,-0.051071,0.624093,0.744003,-0.062441,0.585444,0.727418,-0.019278,0.565814,0.664629,-0.039639,0.553062,0.62151,-0.054608,0.54628,0.58644,-0.062946,0.619906,0.731691,-0.019785,0.645165,0.661529,-0.036255,0.665296,0.615386,-0.045826,0.68252,0.581007,-0.05068,0.64642,0.755876,-0.02349,0.650576,0.7326,-0.048519,0.629023,0.77029,-0.050131,0.613859,0.803718,-0.043639,0.66684,0.791648,-0.029327,0.666406,0.766431,-0.046079,0.645042,0.788428,-0.040081,0.628588,0.813642,-0.031076,1,1,0
863,'2026/05/06 10:40:31:810',4,0.617348,0.903838,0,0.579585,0.867878,-0.024941,0.564441,0.812177,-0.03908,0.592251,0.77186,-0.052499,0.624804,0.747358,-0.064076,0.585416,0.728151,-0.022517,0.565149,0.663826,-0.042132,0.551664,0.619918,-0.056461,0.545603,0.58487,-0.06507,0.620234,0.732723,-0.022895,0.644611,0.663067,-0.038885,0.665706,0.617006,-0.047894,0.684337,0.582511,-0.052829,0.646579,0.756473,-0.026205,0.65192,0.731327,-0.05054,0.630329,0.76781,-0.051223,0.615198,0.80078,-0.044721,0.66664,0.791447,-0.031651,0.666737,0.76535,-0.049323,0.645334,0.788602,-0.043535,0.629502,0.814639,-0.034763,1,1,0
864,'2026/05/06 10:40:31:842',4,0.617688,0.90395,0,0.579418,0.865982,-0.023869,0.563216,0.809884,-0.037607,0.591277,0.770038,-0.051121,0.623875,0.745488,-0.062765,0.585543,0.7258,-0.019646,0.564171,0.662773,-0.039368,0.550865,0.619553,-0.053953,0.544472,0.584645,-0.062288,0.620282,0.730991,-0.020517,0.644156,0.661567,-0.036919,0.664713,0.615012,-0.046428,0.68255,0.580824,-0.051245,0.646602,0.755292,-0.024421,0.649092,0.732829,-0.049379,0.627867,0.769759,-0.051046,0.613181,0.803562,-0.044632,0.666854,0.790948,-0.030348,0.666153,0.765784,-0.047213,0.644425,0.787472,-0.041213,0.62778,0.812749,-0.032196,1,1,0
865,'2026/05/06 10:40:31:873',4,0.616288,0.903599,0,0.578642,0.865651,-0.023866,0.563066,0.809989,-0.037382,0.59151,0.770763,-0.050707,0.623838,0.74704,-0.062259,0.584643,0.727227,-0.020098,0.564216,0.664012,-0.040182,0.551843,0.620162,-0.054862,0.54601,0.584928,-0.063238,0.619377,0.731542,-0.020976,0.643746,0.661525,-0.037855,0.664442,0.614353,-0.047373,0.682236,0.579351,-0.052139,0.645957,0.755296,-0.024878,0.648973,0.732613,-0.050374,0.627418,0.769508,-0.051957,0.612248,0.80309,-0.045319,0.666307,0.79077,-0.030809,0.666635,0.765506,-0.047994,0.644568,0.786923,-0.04197,0.627117,0.812033,-0.032882,1,1,0
866,'2026/05/06 10:40:31:903',4,0.615337,0.902908,0,0.578012,0.866934,-0.024724,0.563067,0.81137,-0.038815,0.590892,0.772313,-0.052271,0.623173,0.748599,-0.063948,0.583637,0.727897,-0.023409,0.56388,0.663078,-0.043175,0.55094,0.618416,-0.057385,0.545221,0.582825,-0.065859,0.618591,0.732378,-0.023879,0.64303,0.662632,-0.040132,0.66411,0.615408,-0.049363,0.68261,0.58041,-0.054415,0.645345,0.755809,-0.027125,0.64984,0.732057,-0.051278,0.628018,0.76706,-0.052305,0.612501,0.799273,-0.046115,0.665756,0.790369,-0.032523,0.665255,0.765771,-0.04996,0.64379,0.788248,-0.044421,0.627516,0.814006,-0.035862,1,1,0
867,'2026/05/06 10:40:31:934',4,0.615729,0.901829,0,0.578044,0.86611,-0.024325,0.562847,0.810619,-0.03821,0.591106,0.771781,-0.051572,0.622835,0.747985,-0.063184,0.583846,0.72701,-0.023145,0.564324,0.663119,-0.043302,0.551244,0.619211,-0.057833,0.544763,0.584316,-0.066274,0.618751,0.731577,-0.023811,0.643123,0.662339,-0.040643,0.664013,0.615353,-0.05024,0.682215,0.580263,-0.055277,0.645351,0.755167,-0.027227,0.649096,0.732857,-0.052099,0.62696,0.769196,-0.053328,0.61123,0.802222,-0.04688,0.665584,0.79005,-0.032708,0.665202,0.766143,-0.050199,0.643213,0.787248,-0.044504,0.625882,0.811503,-0.035709,1,1,0
868,'2026/05/06 10:40:31:965',4,0.615257,0.901764,0,0.577423,0.865265,-0.02433,0.562936,0.809326,-0.03833,0.591677,0.770898,-0.051817,0.623796,0.747011,-0.063574,0.583425,0.725973,-0.022816,0.563412,0.662728,-0.043085,0.55051,0.618858,-0.05765,0.544266,0.583941,-0.066093,0.618429,0.730938,-0.023731,0.642691,0.660996,-0.040658,0.663903,0.614262,-0.050016,0.682405,0.579631,-0.05483,0.645185,0.755174,-0.027493,0.648682,0.732519,-0.052758,0.62648,0.769424,-0.053725,0.6108,0.802378,-0.046991,0.665643,0.790841,-0.033291,0.665421,0.765933,-0.050879,0.643085,0.788007,-0.044708,0.625711,0.81265,-0.035573,1,1,0
869,'2026/05/06 10:40:31:997',4,0.615445,0.903012,0,0.578013,0.865928,-0.024975,0.563098,0.809446,-0.039283,0.591568,0.768853,-0.052968,0.624078,0.743533,-0.064848,0.582902,0.72712,-0.022463,0.563171,0.662375,-0.042706,0.550288,0.61845,-0.057177,0.544532,0.583429,-0.065627,0.617736,0.732412,-0.022919,0.64228,0.662798,-0.040024,0.663139,0.615852,-0.049693,0.681664,0.58029,-0.054693,0.644482,0.75646,-0.026291,0.649217,0.732497,-0.051632,0.626345,0.768825,-0.052553,0.610634,0.801575,-0.04575,0.664905,0.79191,-0.031738,0.66436,0.766395,-0.049603,0.642131,0.788831,-0.043654,0.625527,0.81385,-0.034544,1,1,0
870,'2026/05/06 10:40:32:035',4,0.615372,0.901291,0,0.577375,0.865726,-0.02502,0.561887,0.810628,-0.038904,0.590191,0.771029,-0.052262,0.621836,0.745982,-0.063862,0.582812,0.726024,-0.02226,0.563134,0.662464,-0.042659,0.55059,0.61836,-0.057324,0.544608,0.582943,-0.065711,0.617893,0.730072,-0.022596,0.642742,0.660814,-0.039815,0.663278,0.613446,-0.049454,0.681159,0.578209,-0.054198,0.644899,0.753469,-0.025923,0.647606,0.733055,-0.051578,0.624691,0.769716,-0.053172,0.609001,0.802796,-0.046482,0.665683,0.788136,-0.03135,0.664524,0.765556,-0.048867,0.642031,0.78698,-0.043132,0.624993,0.811339,-0.034134,1,1,0
871,'2026/05/06 10:40:32:073',4,0.614686,0.901341,0,0.576548,0.86645,-0.025296,0.560224,0.812419,-0.040204,0.58738,0.774683,-0.054516,0.619901,0.75224,-0.067118,0.582354,0.72634,-0.024261,0.563119,0.663032,-0.045391,0.550513,0.619295,-0.060512,0.544294,0.584381,-0.069246,0.617486,0.730894,-0.024765,0.642053,0.661621,-0.042567,0.662525,0.614494,-0.052529,0.680163,0.579174,-0.057628,0.644314,0.754502,-0.028155,0.647259,0.732507,-0.053899,0.625097,0.768457,-0.055438,0.609562,0.801099,-0.049003,0.664667,0.789182,-0.033651,0.66366,0.766194,-0.051441,0.641562,0.788486,-0.045776,0.624804,0.813694,-0.036918,1,1,0
872,'2026/05/06 10:40:32:105',4,0.614704,0.900762,0,0.575769,0.866096,-0.025517,0.560761,0.809965,-0.039928,0.589364,0.770296,-0.053431,0.621901,0.745758,-0.065137,0.581623,0.726009,-0.023933,0.562029,0.662128,-0.043813,0.550034,0.618325,-0.057714,0.544809,0.583198,-0.065876,0.617285,0.730834,-0.024153,0.641336,0.660805,-0.041282,0.662198,0.614041,-0.050406,0.680439,0.579084,-0.054863,0.644471,0.754519,-0.02726,0.646688,0.730849,-0.052964,0.624276,0.767879,-0.05394,0.609209,0.800957,-0.047012,0.665326,0.789447,-0.032431,0.663575,0.763917,-0.050965,0.641174,0.787362,-0.045327,0.624788,0.813357,-0.03628,1,1,0
873,'2026/05/06 10:40:32:142',4,0.613574,0.903846,0,0.576232,0.867065,-0.025,0.56099,0.811244,-0.038952,0.589167,0.772076,-0.052577,0.6211,0.747102,-0.064359,0.581996,0.726791,-0.021281,0.562629,0.663389,-0.04163,0.55026,0.619523,-0.056301,0.544513,0.583782,-0.064772,0.617133,0.731021,-0.0219,0.642388,0.662026,-0.039097,0.66318,0.614607,-0.048705,0.680948,0.578778,-0.053447,0.644292,0.754461,-0.025611,0.64767,0.732487,-0.051399,0.624938,0.77028,-0.052584,0.608966,0.804119,-0.04558,0.665091,0.789626,-0.031489,0.664407,0.766286,-0.049081,0.64234,0.78878,-0.042963,0.625384,0.814001,-0.033655,1,1,0
874,'2026/05/06 10:40:32:172',4,0.613574,0.903846,0,0.576232,0.867065,-0.025,0.56099,0.811244,-0.038952,0.589167,0.772076,-0.052577,0.6211,0.747102,-0.064359,0.581996,0.726791,-0.021281,0.562629,0.663389,-0.04163,0.55026,0.619523,-0.056301,0.544513,0.583782,-0.064772,0.617133,0.731021,-0.0219,0.642388,0.662026,-0.039097,0.66318,0.614607,-0.048705,0.680948,0.578778,-0.053447,0.644292,0.754461,-0.025611,0.64767,0.732487,-0.051399,0.624938,0.77028,-0.052584,0.608966,0.804119,-0.04558,0.665091,0.789626,-0.031489,0.664407,0.766286,-0.049081,0.64234,0.78878,-0.042963,0.625384,0.814001,-0.033655,1,1,0
875,'2026/05/06 10:40:32:202',4,0.615171,0.901892,0,0.576667,0.865247,-0.02437,0.561282,0.809723,-0.038546,0.59017,0.770968,-0.052161,0.622319,0.746881,-0.064035,0.581994,0.725802,-0.022861,0.561566,0.66225,-0.042675,0.548497,0.618928,-0.056891,0.542547,0.584523,-0.06522,0.617498,0.730882,-0.02362,0.641216,0.661339,-0.040636,0.662036,0.614487,-0.05029,0.6805,0.579585,-0.055349,0.644453,0.754989,-0.027176,0.647402,0.732701,-0.052316,0.62498,0.767894,-0.053814,0.609139,0.800231,-0.047561,0.665133,0.790461,-0.032731,0.664182,0.766096,-0.050304,0.641659,0.786862,-0.044758,0.624087,0.810817,-0.036124,1,1,0
876,'2026/05/06 10:40:32:231',4,0.614624,0.901504,0,0.577677,0.865044,-0.024387,0.561814,0.809553,-0.037866,0.58959,0.769714,-0.051175,0.621383,0.744588,-0.062695,0.582562,0.72495,-0.019633,0.562381,0.662503,-0.039705,0.549981,0.618495,-0.054445,0.544059,0.582764,-0.062872,0.617314,0.729375,-0.020348,0.641743,0.660196,-0.03739,0.66255,0.613066,-0.047117,0.680457,0.577617,-0.051909,0.644081,0.752962,-0.024223,0.646486,0.731441,-0.050099,0.624524,0.768809,-0.051908,0.609188,0.802219,-0.045212,0.664451,0.78803,-0.030163,0.664101,0.763406,-0.047609,0.642186,0.78509,-0.041691,0.624966,0.810028,-0.032586,1,1,0
877,'2026/05/06 10:40:32:261',4,0.614372,0.901201,0,0.576763,0.864201,-0.023692,0.561785,0.807907,-0.037293,0.58969,0.76759,-0.050605,0.62094,0.741365,-0.062171,0.581717,0.725586,-0.021029,0.560876,0.661659,-0.041185,0.548081,0.618497,-0.055627,0.542447,0.584119,-0.063859,0.6165,0.730055,-0.022075,0.640211,0.660102,-0.039333,0.66095,0.613189,-0.049079,0.679587,0.578276,-0.05381,0.643314,0.753609,-0.02594,0.645653,0.730584,-0.05145,0.623273,0.767714,-0.052601,0.608488,0.80141,-0.045629,0.664204,0.78874,-0.031739,0.663189,0.763371,-0.049161,0.641047,0.785598,-0.042821,0.624811,0.811114,-0.033318,1,1,0
878,'2026/05/06 10:40:32:293',4,0.614152,0.899793,0,0.575554,0.865047,-0.024869,0.559505,0.810422,-0.039493,0.587239,0.772042,-0.053566,0.620145,0.748928,-0.065852,0.580743,0.725622,-0.023495,0.560913,0.66184,-0.043505,0.548341,0.618094,-0.057741,0.54294,0.583242,-0.066098,0.61602,0.729348,-0.024121,0.640145,0.659788,-0.041177,0.661107,0.612932,-0.050679,0.679477,0.578129,-0.055567,0.643108,0.752319,-0.027553,0.645454,0.729667,-0.052693,0.623493,0.766464,-0.053881,0.60796,0.799945,-0.047356,0.66395,0.786786,-0.033078,0.66325,0.762508,-0.05069,0.641186,0.784797,-0.044858,0.624044,0.810109,-0.035931,1,1,0
879,'2026/05/06 10:40:32:323',4,0.611824,0.900304,0,0.575752,0.864785,-0.024791,0.560901,0.807897,-0.038892,0.588855,0.767664,-0.052473,0.620878,0.742517,-0.064248,0.579941,0.724293,-0.022339,0.56095,0.660153,-0.043094,0.548554,0.615734,-0.057887,0.542673,0.579808,-0.066538,0.615284,0.729039,-0.022885,0.640417,0.66074,-0.040481,0.661682,0.614288,-0.050161,0.679855,0.578292,-0.054882,0.642764,0.752298,-0.026359,0.646206,0.730921,-0.052388,0.623069,0.769686,-0.05302,0.607399,0.803221,-0.045601,0.663946,0.786825,-0.03189,0.662797,0.763392,-0.050232,0.64025,0.787076,-0.043921,0.623612,0.812357,-0.034252,1,1,0
880,'2026/05/06 10:40:32:358',4,0.613173,0.901168,0,0.574763,0.865346,-0.024437,0.559864,0.808747,-0.038251,0.588284,0.768496,-0.051385,0.620627,0.743666,-0.062744,0.580489,0.72547,-0.022656,0.560768,0.661682,-0.042135,0.547974,0.617732,-0.056098,0.54237,0.582096,-0.064539,0.615914,0.729916,-0.023376,0.640355,0.65995,-0.0399,0.660983,0.612707,-0.049198,0.679059,0.576907,-0.054141,0.642996,0.753423,-0.026894,0.646231,0.728592,-0.051714,0.623125,0.765205,-0.052582,0.607315,0.798353,-0.04606,0.663691,0.788209,-0.032469,0.663121,0.762847,-0.050552,0.640613,0.785378,-0.044962,0.623891,0.81026,-0.03625,1,1,0
881,'2026/05/06 10:40:32:386',4,0.612472,0.898596,0,0.574324,0.865016,-0.024809,0.558354,0.810626,-0.039581,0.585787,0.772584,-0.053659,0.617934,0.749422,-0.065959,0.579106,0.724526,-0.02441,0.559643,0.661075,-0.044697,0.547534,0.617711,-0.059076,0.542263,0.582861,-0.06762,0.614927,0.728577,-0.025038,0.639065,0.659597,-0.042515,0.659895,0.613314,-0.051961,0.677974,0.578056,-0.0568,0.642349,0.75154,-0.028407,0.644652,0.728911,-0.053816,0.621557,0.765993,-0.054494,0.605527,0.799013,-0.047615,0.663459,0.785764,-0.033842,0.662482,0.762405,-0.051988,0.639644,0.784869,-0.046211,0.622303,0.809491,-0.037231,1,1,0
882,'2026/05/06 10:40:32:431',4,0.613847,0.900258,0,0.575363,0.864613,-0.024876,0.559425,0.808762,-0.039097,0.587159,0.768609,-0.05263,0.618979,0.74382,-0.064352,0.580194,0.725026,-0.023295,0.560384,0.661382,-0.043267,0.547332,0.617243,-0.0575,0.541252,0.581965,-0.065837,0.615502,0.729132,-0.023674,0.639377,0.659845,-0.040322,0.659907,0.612311,-0.049487,0.677855,0.576649,-0.054197,0.642511,0.75202,-0.026906,0.644357,0.729426,-0.051557,0.622189,0.765676,-0.052396,0.607021,0.798908,-0.045677,0.663148,0.786125,-0.032266,0.661512,0.761095,-0.049587,0.639881,0.78357,-0.04364,0.623957,0.80939,-0.034633,1,1,0
883,'2026/05/06 10:40:32:464',4,0.612617,0.90167,0,0.57453,0.86411,-0.024283,0.55962,0.806792,-0.038055,0.588156,0.765861,-0.051377,0.620218,0.739686,-0.06291,0.580492,0.724649,-0.021456,0.559695,0.660219,-0.041626,0.546056,0.616816,-0.056159,0.539616,0.582693,-0.064484,0.615628,0.729463,-0.022328,0.639003,0.658691,-0.039164,0.659512,0.611203,-0.048866,0.677627,0.575781,-0.053952,0.642374,0.753456,-0.026156,0.645073,0.72915,-0.051522,0.623377,0.766147,-0.052958,0.608428,0.799726,-0.046523,0.662618,0.788929,-0.031988,0.662214,0.761655,-0.049685,0.639888,0.783755,-0.043773,0.622712,0.809226,-0.034829,1,1,0
884,'2026/05/06 10:40:32:495',4,0.612997,0.899953,0,0.573648,0.865212,-0.025302,0.558003,0.808227,-0.039305,0.586384,0.768459,-0.052558,0.618221,0.743471,-0.064013,0.579104,0.724192,-0.022926,0.55935,0.660717,-0.042527,0.54688,0.61753,-0.05665,0.54159,0.582567,-0.065168,0.614531,0.728472,-0.023205,0.638094,0.659057,-0.040261,0.658481,0.612105,-0.049915,0.676622,0.576255,-0.055023,0.641532,0.751379,-0.02642,0.643948,0.72755,-0.051947,0.621461,0.764529,-0.053246,0.606005,0.797868,-0.046792,0.662353,0.7853,-0.031756,0.661254,0.760883,-0.050332,0.639294,0.783633,-0.045222,0.622849,0.808925,-0.036745,1,1,0
885,'2026/05/06 10:40:32:526',4,0.613042,0.898097,0,0.574646,0.864129,-0.02445,0.55902,0.808059,-0.038472,0.587155,0.767769,-0.051783,0.619376,0.743153,-0.063399,0.5792,0.724402,-0.023755,0.559273,0.659651,-0.043309,0.546672,0.615872,-0.057057,0.541333,0.580692,-0.065329,0.614621,0.72885,-0.024407,0.638297,0.658903,-0.041174,0.65879,0.612101,-0.050593,0.677142,0.57648,-0.05554,0.641656,0.752131,-0.027686,0.644269,0.727383,-0.052621,0.621593,0.764605,-0.053469,0.606692,0.798072,-0.046915,0.662461,0.786894,-0.032956,0.660603,0.761624,-0.051315,0.638165,0.784478,-0.045792,0.621921,0.809813,-0.037026,1,1,0
886,'2026/05/06 10:40:32:557',4,0.613042,0.898097,0,0.574646,0.864129,-0.02445,0.55902,0.808059,-0.038472,0.587155,0.767769,-0.051783,0.619376,0.743153,-0.063399,0.5792,0.724402,-0.023755,0.559273,0.659651,-0.043309,0.546672,0.615872,-0.057057,0.541333,0.580692,-0.065329,0.614621,0.72885,-0.024407,0.638297,0.658903,-0.041174,0.65879,0.612101,-0.050593,0.677142,0.57648,-0.05554,0.641656,0.752131,-0.027686,0.644269,0.727383,-0.052621,0.621593,0.764605,-0.053469,0.606692,0.798072,-0.046915,0.662461,0.786894,-0.032956,0.660603,0.761624,-0.051315,0.638165,0.784478,-0.045792,0.621921,0.809813,-0.037026,1,1,0
887,'2026/05/06 10:40:32:588',4,0.612394,0.898425,0,0.574176,0.864138,-0.024897,0.557909,0.81021,-0.039519,0.584652,0.771041,-0.053562,0.614909,0.745417,-0.065874,0.579254,0.725467,-0.024213,0.558829,0.661894,-0.045057,0.545458,0.618406,-0.059883,0.539282,0.583948,-0.068483,0.614482,0.7293,-0.024836,0.637822,0.659278,-0.042513,0.657528,0.611702,-0.052409,0.675211,0.576184,-0.05755,0.641446,0.752384,-0.028254,0.6448,0.728624,-0.053513,0.622637,0.76405,-0.05466,0.607094,0.796859,-0.048173,0.662218,0.78682,-0.033784,0.660557,0.763019,-0.051426,0.638588,0.784448,-0.045822,0.6219,0.809322,-0.037068,1,1,0
888,'2026/05/06 10:40:32:627',4,0.612644,0.902797,0,0.574406,0.866503,-0.02459,0.55859,0.81027,-0.038334,0.586583,0.769398,-0.051695,0.618492,0.744149,-0.063274,0.579758,0.726234,-0.021765,0.559353,0.66202,-0.041782,0.546034,0.618172,-0.056342,0.539727,0.583072,-0.064837,0.614638,0.730196,-0.022342,0.63888,0.660023,-0.038973,0.65895,0.611956,-0.04863,0.676511,0.576029,-0.053737,0.641386,0.753717,-0.02585,0.645083,0.729913,-0.050629,0.62301,0.766468,-0.051994,0.607519,0.800492,-0.045633,0.661659,0.788717,-0.031503,0.661199,0.764153,-0.048853,0.639204,0.785615,-0.04325,0.622192,0.810822,-0.034541,1,1,0
889,'2026/05/06 10:40:32:671',4,0.611442,0.901059,0,0.57414,0.865728,-0.025398,0.559323,0.809015,-0.039442,0.587611,0.7684,-0.052729,0.619042,0.742095,-0.06426,0.57938,0.726328,-0.023207,0.559634,0.662105,-0.043646,0.547087,0.618353,-0.058068,0.5414,0.582907,-0.06647,0.614531,0.730867,-0.023491,0.638712,0.660491,-0.040924,0.659041,0.613034,-0.05061,0.677131,0.576625,-0.055476,0.641632,0.754251,-0.0267,0.645014,0.731135,-0.052499,0.622072,0.768033,-0.053545,0.606637,0.800786,-0.046655,0.662426,0.788952,-0.032013,0.660271,0.764827,-0.050231,0.63783,0.787585,-0.044454,0.621514,0.812503,-0.035399,1,1,0
890,'2026/05/06 10:40:32:696',4,0.611932,0.901454,0,0.574048,0.866303,-0.02535,0.559337,0.809321,-0.039222,0.587664,0.768431,-0.052456,0.61894,0.741237,-0.063894,0.579411,0.725836,-0.022345,0.560071,0.661781,-0.042902,0.54756,0.618087,-0.057436,0.541462,0.582906,-0.065675,0.614765,0.730325,-0.022599,0.63918,0.66017,-0.03999,0.65969,0.612686,-0.049612,0.677375,0.576474,-0.054271,0.641885,0.753882,-0.02589,0.644017,0.731982,-0.052156,0.621446,0.77057,-0.0535,0.606044,0.80408,-0.046477,0.662485,0.788681,-0.031265,0.660322,0.765497,-0.049487,0.637909,0.788569,-0.043644,0.620904,0.81352,-0.034454,1,1,0
891,'2026/05/06 10:40:32:729',4,0.612998,0.901542,0,0.574441,0.866806,-0.025514,0.559154,0.809902,-0.039521,0.587088,0.769391,-0.052582,0.618764,0.743674,-0.06378,0.580477,0.725623,-0.023811,0.560067,0.661861,-0.043321,0.547109,0.618146,-0.057216,0.541587,0.582747,-0.065623,0.61571,0.73054,-0.023985,0.639033,0.660353,-0.040573,0.659471,0.613172,-0.049891,0.677559,0.57723,-0.054916,0.642381,0.754358,-0.027024,0.645419,0.731369,-0.051914,0.622922,0.767797,-0.053049,0.607141,0.800366,-0.046778,0.662585,0.789086,-0.032237,0.660343,0.765729,-0.050656,0.638008,0.787578,-0.045688,0.62102,0.811523,-0.037455,1,1,0
892,'2026/05/06 10:40:32:760',4,0.612144,0.90376,0,0.573464,0.868177,-0.024939,0.557827,0.810366,-0.039195,0.586026,0.769745,-0.052867,0.618694,0.744489,-0.064714,0.578583,0.727309,-0.023216,0.558983,0.66252,-0.043075,0.546592,0.618382,-0.056903,0.541282,0.582868,-0.065007,0.614048,0.732174,-0.023897,0.638428,0.662742,-0.041335,0.658866,0.615089,-0.051063,0.676808,0.578658,-0.055856,0.641147,0.755492,-0.027361,0.641866,0.731826,-0.053314,0.618209,0.770282,-0.054419,0.602857,0.804783,-0.047406,0.662029,0.790159,-0.032845,0.660404,0.763768,-0.051213,0.637464,0.785618,-0.045346,0.620626,0.810503,-0.036105,1,1,0
893,'2026/05/06 10:40:32:793',4,0.613135,0.902723,0,0.575103,0.866302,-0.024559,0.559646,0.810181,-0.038521,0.587442,0.769293,-0.051954,0.619106,0.743325,-0.06367,0.579733,0.726575,-0.022335,0.559517,0.662653,-0.042497,0.546589,0.61931,-0.056827,0.540751,0.58497,-0.065037,0.614902,0.73066,-0.022978,0.638807,0.66085,-0.04001,0.659232,0.613734,-0.049573,0.677152,0.578499,-0.054355,0.641744,0.75361,-0.026536,0.643592,0.731064,-0.052053,0.621637,0.767961,-0.053676,0.606945,0.801545,-0.047187,0.662173,0.787827,-0.032097,0.660541,0.763487,-0.049658,0.638684,0.785499,-0.04395,0.622508,0.81067,-0.035067,1,1,0
894,'2026/05/06 10:40:32:829',4,0.611936,0.901292,0,0.574393,0.866483,-0.024192,0.558458,0.810118,-0.038275,0.585833,0.770415,-0.051956,0.618426,0.746812,-0.063917,0.579076,0.726787,-0.02256,0.559189,0.662748,-0.042514,0.546603,0.619694,-0.056707,0.540932,0.585532,-0.064973,0.614037,0.731367,-0.023611,0.638017,0.661214,-0.040703,0.658725,0.614229,-0.050239,0.676594,0.578796,-0.055099,0.640752,0.754887,-0.027472,0.64359,0.729828,-0.053165,0.621789,0.767744,-0.054405,0.606714,0.801832,-0.047739,0.661241,0.789815,-0.033288,0.660965,0.76351,-0.051423,0.638665,0.785688,-0.045579,0.621451,0.810804,-0.036576,1,1,0
895,'2026/05/06 10:40:32:860',4,0.61237,0.900624,0,0.5738,0.866763,-0.024604,0.558447,0.81016,-0.038932,0.585914,0.769069,-0.052498,0.617499,0.743298,-0.064302,0.578431,0.726721,-0.024669,0.559254,0.660739,-0.044262,0.546699,0.616416,-0.057911,0.541437,0.580887,-0.066197,0.613988,0.731196,-0.025131,0.638528,0.661838,-0.041718,0.659717,0.615682,-0.050836,0.678446,0.580287,-0.055734,0.640946,0.754343,-0.028197,0.644294,0.728361,-0.052564,0.621635,0.765486,-0.053173,0.606616,0.799357,-0.046726,0.66172,0.788834,-0.033302,0.660399,0.763193,-0.051448,0.638089,0.785358,-0.046153,0.621887,0.810432,-0.037674,1,1,0
896,'2026/05/06 10:40:32:900',4,0.61224,0.900196,0,0.573208,0.866567,-0.024741,0.557965,0.810405,-0.038589,0.58624,0.770525,-0.051657,0.618926,0.746964,-0.062907,0.578603,0.725574,-0.022591,0.559382,0.662158,-0.041459,0.546962,0.61896,-0.05495,0.541926,0.583924,-0.063331,0.614165,0.729353,-0.022906,0.638097,0.661411,-0.039298,0.658934,0.615563,-0.04863,0.677873,0.580527,-0.053775,0.641074,0.752343,-0.026025,0.645842,0.728484,-0.050494,0.623054,0.76539,-0.051497,0.607346,0.798885,-0.045372,0.661899,0.786514,-0.031265,0.661059,0.764722,-0.049934,0.638547,0.78664,-0.045472,0.621832,0.810641,-0.037574,1,1,0
897,'2026/05/06 10:40:32:931',4,0.611606,0.900925,0,0.573663,0.866578,-0.025228,0.558689,0.80861,-0.039167,0.587418,0.767236,-0.052202,0.620134,0.742024,-0.063384,0.578785,0.726515,-0.023473,0.559074,0.661889,-0.042777,0.546147,0.617917,-0.05648,0.540611,0.582718,-0.0648,0.614091,0.731238,-0.023354,0.638048,0.663019,-0.039506,0.658504,0.616871,-0.048493,0.676762,0.581599,-0.053312,0.640965,0.754563,-0.026044,0.644943,0.730167,-0.050305,0.621973,0.766586,-0.051021,0.606657,0.799437,-0.044554,0.661546,0.789072,-0.030871,0.659792,0.764028,-0.048777,0.63773,0.78614,-0.043547,0.621943,0.810677,-0.035134,1,1,0
898,'2026/05/06 10:40:32:966',4,0.611606,0.900925,0,0.573663,0.866578,-0.025228,0.558689,0.80861,-0.039167,0.587418,0.767236,-0.052202,0.620134,0.742024,-0.063384,0.578785,0.726515,-0.023473,0.559074,0.661889,-0.042777,0.546147,0.617917,-0.05648,0.540611,0.582718,-0.0648,0.614091,0.731238,-0.023354,0.638048,0.663019,-0.039506,0.658504,0.616871,-0.048493,0.676762,0.581599,-0.053312,0.640965,0.754563,-0.026044,0.644943,0.730167,-0.050305,0.621973,0.766586,-0.051021,0.606657,0.799437,-0.044554,0.661546,0.789072,-0.030871,0.659792,0.764028,-0.048777,0.63773,0.78614,-0.043547,0.621943,0.810677,-0.035134,1,1,0
899,'2026/05/06 10:40:32:998',4,0.611354,0.901679,0,0.574004,0.866025,-0.024316,0.558064,0.810708,-0.038327,0.585145,0.771504,-0.051875,0.616741,0.746901,-0.063578,0.579163,0.726516,-0.021966,0.55859,0.663972,-0.041825,0.545567,0.62068,-0.056247,0.539639,0.585954,-0.06468,0.613649,0.731122,-0.022586,0.637248,0.662116,-0.03915,0.657667,0.615736,-0.048482,0.675663,0.581297,-0.053343,0.639983,0.754597,-0.026085,0.643581,0.732098,-0.050722,0.621532,0.767916,-0.051996,0.605796,0.800629,-0.045656,0.660303,0.789356,-0.031676,0.659821,0.765915,-0.048943,0.637815,0.786768,-0.043425,0.620358,0.810634,-0.034837,1,1,0
900,'2026/05/06 10:40:33:038',4,0.610741,0.901507,0,0.573348,0.866955,-0.024613,0.557766,0.811424,-0.038246,0.585505,0.77184,-0.051416,0.617945,0.747886,-0.062785,0.577888,0.727879,-0.021589,0.557468,0.664263,-0.041024,0.544635,0.620764,-0.055161,0.538795,0.585512,-0.063576,0.612695,0.731953,-0.021919,0.637072,0.663381,-0.038326,0.657796,0.617216,-0.047431,0.675154,0.582534,-0.0521,0.639305,0.754854,-0.025194,0.643183,0.731291,-0.050209,0.620979,0.76866,-0.051333,0.60526,0.802436,-0.044694,0.659805,0.788863,-0.030557,0.659777,0.765233,-0.048498,0.637702,0.787175,-0.043031,0.620454,0.811738,-0.034294,1,1,0
901,'2026/05/06 10:40:33:068',4,0.610171,0.902286,0,0.573052,0.868049,-0.025602,0.557609,0.810634,-0.039525,0.585819,0.769403,-0.052678,0.61808,0.743153,-0.064039,0.577533,0.727816,-0.022692,0.557955,0.66428,-0.04287,0.545687,0.620371,-0.057083,0.539805,0.584848,-0.065366,0.612276,0.732719,-0.022839,0.637117,0.663239,-0.039882,0.657402,0.616716,-0.049268,0.674667,0.581649,-0.053889,0.639096,0.75642,-0.026014,0.642477,0.733144,-0.051957,0.619765,0.771125,-0.053288,0.604649,0.80456,-0.046463,0.659666,0.791267,-0.031265,0.658139,0.765759,-0.049595,0.636072,0.788601,-0.043954,0.620195,0.813772,-0.034991,1,1,0
902,'2026/05/06 10:40:33:106',4,0.610375,0.901296,0,0.572467,0.867075,-0.024646,0.557267,0.811316,-0.03872,0.584551,0.770507,-0.052076,0.615819,0.744248,-0.063615,0.577198,0.728213,-0.023423,0.557419,0.663436,-0.043684,0.54447,0.620291,-0.057738,0.538325,0.586043,-0.065799,0.612424,0.732748,-0.023847,0.636419,0.663263,-0.040883,0.656896,0.616692,-0.05017,0.674732,0.581487,-0.054695,0.639217,0.756041,-0.027047,0.641723,0.732102,-0.052317,0.61967,0.76978,-0.053307,0.604993,0.803507,-0.046486,0.65992,0.790687,-0.03223,0.657352,0.766699,-0.050374,0.635036,0.789649,-0.044795,0.618992,0.814934,-0.035789,1,1,0
903,'2026/05/06 10:40:33:133',4,0.609808,0.903693,0,0.571632,0.869349,-0.025176,0.555438,0.814027,-0.039647,0.583098,0.774483,-0.053457,0.616107,0.751243,-0.065375,0.57644,0.728757,-0.023968,0.556645,0.663618,-0.043911,0.543661,0.619644,-0.058067,0.537712,0.584395,-0.066545,0.611894,0.732748,-0.024279,0.636168,0.664077,-0.041291,0.656709,0.617311,-0.050785,0.674322,0.581947,-0.055693,0.638947,0.755715,-0.027383,0.641167,0.733409,-0.052475,0.618758,0.770913,-0.053611,0.603544,0.80501,-0.047082,0.659699,0.790139,-0.032604,0.658017,0.766911,-0.050654,0.635642,0.788967,-0.045251,0.619092,0.814163,-0.036519,1,1,0
904,'2026/05/06 10:40:33:164',4,0.609654,0.901754,0,0.57256,0.868346,-0.025392,0.557397,0.811905,-0.039145,0.585942,0.771998,-0.052134,0.617413,0.746421,-0.063347,0.576492,0.727675,-0.022775,0.556382,0.663821,-0.042428,0.543995,0.620322,-0.056355,0.538187,0.585447,-0.064547,0.611391,0.73235,-0.022866,0.635042,0.663318,-0.039546,0.655293,0.617073,-0.048833,0.672987,0.582351,-0.053497,0.63822,0.756064,-0.025866,0.641645,0.732975,-0.051326,0.619192,0.770427,-0.052484,0.604167,0.80354,-0.045715,0.658842,0.791132,-0.030948,0.657084,0.766863,-0.049492,0.635221,0.790498,-0.044096,0.619345,0.816428,-0.035226,1,1,0
905,'2026/05/06 10:40:33:196',4,0.60879,0.902219,0,0.571452,0.867878,-0.025003,0.556643,0.810284,-0.038764,0.584747,0.769448,-0.051915,0.616471,0.743286,-0.063244,0.575975,0.727488,-0.022591,0.556242,0.663586,-0.042654,0.543652,0.619495,-0.056829,0.537697,0.583871,-0.065141,0.610941,0.732575,-0.022997,0.635967,0.662869,-0.040088,0.656726,0.616154,-0.049558,0.67435,0.580847,-0.054246,0.638074,0.756157,-0.026308,0.641061,0.732166,-0.052085,0.618545,0.770548,-0.053176,0.603299,0.804899,-0.046205,0.659096,0.79075,-0.031659,0.657868,0.765016,-0.049965,0.635671,0.78757,-0.044153,0.619145,0.812832,-0.034989,1,1,0
906,'2026/05/06 10:40:33:231',4,0.608825,0.902425,0,0.571013,0.868674,-0.025533,0.55485,0.811266,-0.039591,0.582846,0.770145,-0.053025,0.615284,0.744163,-0.064572,0.575347,0.727262,-0.02187,0.555273,0.66253,-0.041726,0.54264,0.619135,-0.055864,0.536871,0.584318,-0.064176,0.610501,0.732084,-0.022105,0.634537,0.662575,-0.039071,0.655022,0.615969,-0.048495,0.672484,0.580571,-0.053098,0.637442,0.755758,-0.025416,0.639539,0.731947,-0.05155,0.617317,0.771691,-0.052803,0.602808,0.806546,-0.045763,0.658373,0.790836,-0.030788,0.656918,0.76454,-0.049698,0.634569,0.788002,-0.044125,0.618167,0.813826,-0.034989,1,1,0
907,'2026/05/06 10:40:33:262',4,0.608159,0.899149,0,0.570878,0.868649,-0.025491,0.555742,0.809252,-0.039141,0.584298,0.766235,-0.051805,0.615917,0.739294,-0.06258,0.574969,0.726761,-0.0238,0.555748,0.659867,-0.044231,0.542395,0.615157,-0.058746,0.535704,0.579769,-0.067476,0.609762,0.732331,-0.023647,0.633982,0.662548,-0.041029,0.655422,0.616939,-0.050681,0.67396,0.581547,-0.055574,0.636594,0.755926,-0.026338,0.639484,0.731388,-0.052395,0.616632,0.771577,-0.052671,0.601829,0.806009,-0.045173,0.657472,0.790064,-0.031085,0.65534,0.764317,-0.050969,0.633186,0.789314,-0.045377,0.61802,0.815658,-0.036022,1,1,0
908,'2026/05/06 10:40:33:289',4,0.608316,0.899344,0,0.570548,0.865591,-0.024639,0.555228,0.809406,-0.038492,0.583153,0.769179,-0.05181,0.614515,0.743264,-0.063452,0.574354,0.726264,-0.022436,0.554728,0.662338,-0.042377,0.542041,0.619659,-0.056486,0.536111,0.58558,-0.064662,0.60946,0.730879,-0.023022,0.633147,0.661788,-0.040185,0.653454,0.615374,-0.049802,0.671152,0.580391,-0.054552,0.636503,0.754158,-0.026459,0.638952,0.730358,-0.052232,0.616486,0.768341,-0.05339,0.601532,0.801961,-0.046518,0.657437,0.78883,-0.031862,0.655971,0.762929,-0.050439,0.633661,0.786383,-0.04474,0.617261,0.812258,-0.035615,1,1,0
909,'2026/05/06 10:40:33:335',4,0.605532,0.898737,0,0.569507,0.865238,-0.026726,0.55554,0.80706,-0.040379,0.584195,0.764531,-0.053078,0.61674,0.737774,-0.063963,0.574677,0.727281,-0.022829,0.555212,0.661431,-0.043247,0.542553,0.615802,-0.057866,0.536651,0.578519,-0.066568,0.609414,0.732608,-0.022195,0.634334,0.662157,-0.039236,0.655646,0.615034,-0.049142,0.673875,0.578734,-0.054366,0.636751,0.756331,-0.024724,0.640371,0.73162,-0.050674,0.618093,0.770992,-0.052281,0.603418,0.805287,-0.045726,0.658224,0.790292,-0.029471,0.65576,0.763014,-0.048207,0.634342,0.786289,-0.04287,0.619497,0.811983,-0.034122,1,1,0
910,'2026/05/06 10:40:33:364',4,0.605532,0.898737,0,0.569507,0.865238,-0.026726,0.55554,0.80706,-0.040379,0.584195,0.764531,-0.053078,0.61674,0.737774,-0.063963,0.574677,0.727281,-0.022829,0.555212,0.661431,-0.043247,0.542553,0.615802,-0.057866,0.536651,0.578519,-0.066568,0.609414,0.732608,-0.022195,0.634334,0.662157,-0.039236,0.655646,0.615034,-0.049142,0.673875,0.578734,-0.054366,0.636751,0.756331,-0.024724,0.640371,0.73162,-0.050674,0.618093,0.770992,-0.052281,0.603418,0.805287,-0.045726,0.658224,0.790292,-0.029471,0.65576,0.763014,-0.048207,0.634342,0.786289,-0.04287,0.619497,0.811983,-0.034122,1,1,0
911,'2026/05/06 10:40:33:396',4,0.608263,0.900476,0,0.571146,0.865804,-0.025833,0.555332,0.809599,-0.040041,0.583204,0.768119,-0.053657,0.61601,0.742777,-0.065332,0.575284,0.727446,-0.021793,0.555346,0.662565,-0.042684,0.54226,0.618067,-0.057721,0.535823,0.58245,-0.066419,0.609707,0.731874,-0.02174,0.63416,0.662314,-0.03934,0.654678,0.615099,-0.049315,0.672444,0.579288,-0.054332,0.636659,0.755046,-0.02483,0.639961,0.731815,-0.051081,0.617172,0.77129,-0.051926,0.60184,0.806075,-0.04457,0.657803,0.789372,-0.030091,0.656839,0.763854,-0.048486,0.634808,0.787221,-0.042288,0.6185,0.812928,-0.032745,1,1,0
912,'2026/05/06 10:40:33:426',4,0.609358,0.901991,0,0.571108,0.868661,-0.026125,0.554954,0.811876,-0.039994,0.583851,0.770376,-0.052898,0.616277,0.744531,-0.06386,0.574649,0.728217,-0.022417,0.554484,0.663132,-0.042435,0.541703,0.619951,-0.056545,0.535635,0.585166,-0.064742,0.609852,0.732883,-0.022059,0.633094,0.663066,-0.039637,0.652992,0.616197,-0.049682,0.670668,0.580436,-0.054546,0.636787,0.756273,-0.024739,0.640085,0.733959,-0.051425,0.617703,0.772452,-0.053295,0.603294,0.805926,-0.046483,0.657797,0.790796,-0.029444,0.655985,0.767391,-0.04887,0.633986,0.791041,-0.043951,0.618508,0.81635,-0.035082,1,1,0
913,'2026/05/06 10:40:33:457',4,0.609382,0.90386,0,0.571652,0.87061,-0.025813,0.55463,0.814464,-0.039988,0.581904,0.773638,-0.053439,0.613475,0.747754,-0.065032,0.575399,0.728958,-0.022531,0.554975,0.664176,-0.042689,0.542336,0.621043,-0.056839,0.536359,0.586264,-0.064963,0.610506,0.73399,-0.022718,0.63368,0.663455,-0.040221,0.653282,0.615817,-0.049895,0.670458,0.580023,-0.054374,0.637186,0.757978,-0.025959,0.640251,0.73446,-0.052676,0.618088,0.77317,-0.05429,0.60343,0.807151,-0.047188,0.657791,0.793467,-0.03119,0.656492,0.767923,-0.050597,0.634593,0.792092,-0.04519,0.618698,0.818617,-0.035858,1,1,0
914,'2026/05/06 10:40:33:489',4,0.609039,0.901774,0,0.571378,0.869362,-0.026343,0.555664,0.81109,-0.040271,0.584909,0.769037,-0.053317,0.616961,0.741617,-0.064551,0.575057,0.728224,-0.022694,0.555373,0.662847,-0.043114,0.542822,0.619323,-0.05726,0.536774,0.584274,-0.065391,0.610138,0.734079,-0.022526,0.634456,0.663572,-0.040419,0.654382,0.616433,-0.050205,0.671591,0.580403,-0.054751,0.637071,0.758415,-0.025484,0.640688,0.735331,-0.052883,0.617438,0.776071,-0.054025,0.602486,0.810587,-0.046418,0.65795,0.793768,-0.030457,0.656454,0.768242,-0.050285,0.634466,0.792965,-0.044606,0.619141,0.818867,-0.035078,1,1,0
915,'2026/05/06 10:40:33:522',4,0.608968,0.905077,0,0.571766,0.869218,-0.025129,0.556822,0.811308,-0.038301,0.585785,0.768977,-0.050928,0.617472,0.741386,-0.061815,0.575497,0.728417,-0.020483,0.555107,0.663691,-0.040627,0.542554,0.619514,-0.054988,0.536388,0.583668,-0.063202,0.610413,0.73367,-0.020853,0.635249,0.663248,-0.038184,0.655733,0.61564,-0.048002,0.673353,0.57942,-0.052689,0.637596,0.758121,-0.024326,0.640822,0.73624,-0.051099,0.617692,0.775529,-0.05238,0.602541,0.809566,-0.044966,0.658572,0.793765,-0.029798,0.657387,0.768549,-0.048487,0.635115,0.792364,-0.042242,0.619251,0.818215,-0.032508,1,1,0
916,'2026/05/06 10:40:33:553',4,0.608871,0.902787,0,0.570539,0.86925,-0.025939,0.554281,0.814264,-0.040174,0.582616,0.774889,-0.053493,0.615313,0.751344,-0.064817,0.575182,0.728584,-0.023332,0.555202,0.664246,-0.043413,0.542601,0.620441,-0.057788,0.536702,0.584702,-0.066319,0.610266,0.733015,-0.023087,0.634535,0.664474,-0.0405,0.654829,0.616885,-0.050465,0.672307,0.580402,-0.055474,0.637187,0.756237,-0.025755,0.640373,0.735943,-0.051449,0.618046,0.77401,-0.052704,0.6031,0.807389,-0.045811,0.658255,0.790565,-0.03056,0.656742,0.768759,-0.04904,0.634758,0.792596,-0.043553,0.619278,0.818097,-0.034467,1,1,0
917,'2026/05/06 10:40:33:582',4,0.609402,0.902565,0,0.571974,0.869757,-0.025847,0.555671,0.812719,-0.039593,0.584297,0.771901,-0.052519,0.616735,0.746594,-0.06355,0.576057,0.728533,-0.022489,0.555223,0.664718,-0.042937,0.542564,0.620869,-0.057438,0.536422,0.585107,-0.065919,0.610941,0.733115,-0.022536,0.634871,0.662898,-0.040272,0.65493,0.615124,-0.050144,0.672376,0.578807,-0.05494,0.63793,0.757031,-0.025624,0.641643,0.73481,-0.052487,0.619364,0.774213,-0.053781,0.604701,0.808032,-0.046564,0.658823,0.792496,-0.030769,0.65742,0.768814,-0.049994,0.635042,0.793256,-0.044351,0.619159,0.818802,-0.035069,1,1,0
918,'2026/05/06 10:40:33:615',4,0.606978,0.901482,0,0.570409,0.869483,-0.026996,0.555365,0.81138,-0.041152,0.584555,0.770053,-0.054103,0.615961,0.743298,-0.0651,0.574582,0.727689,-0.024478,0.55535,0.661948,-0.0457,0.542183,0.617065,-0.060696,0.535472,0.580562,-0.069536,0.60968,0.732907,-0.023668,0.634413,0.663695,-0.041775,0.655417,0.617107,-0.051749,0.673802,0.581003,-0.05666,0.637068,0.756429,-0.025949,0.641774,0.735783,-0.052795,0.61863,0.775162,-0.053742,0.603459,0.809015,-0.046387,0.658624,0.790707,-0.030439,0.65599,0.769515,-0.050264,0.63372,0.794117,-0.045047,0.618685,0.819522,-0.035931,1,1,0
919,'2026/05/06 10:40:33:645',4,0.609032,0.901499,0,0.571844,0.867803,-0.025854,0.556038,0.811719,-0.03972,0.584753,0.770906,-0.052745,0.61579,0.74406,-0.063923,0.575181,0.727476,-0.022728,0.555723,0.663464,-0.043507,0.543452,0.619942,-0.058176,0.537232,0.584257,-0.066581,0.610229,0.732268,-0.022633,0.635214,0.662565,-0.040335,0.655327,0.615551,-0.050197,0.672397,0.579587,-0.054883,0.637437,0.755992,-0.025571,0.641456,0.735721,-0.051866,0.619278,0.774318,-0.053005,0.604563,0.807386,-0.045736,0.65861,0.791109,-0.030601,0.657112,0.768976,-0.049031,0.635581,0.793191,-0.043028,0.620338,0.818703,-0.033501,1,1,0
920,'2026/05/06 10:40:33:676',4,0.610389,0.90386,0,0.572411,0.869367,-0.026001,0.555288,0.814203,-0.040309,0.582995,0.773232,-0.053844,0.614601,0.747379,-0.06546,0.575396,0.728375,-0.021605,0.554997,0.664659,-0.042419,0.542435,0.621623,-0.057281,0.536076,0.586688,-0.065711,0.610508,0.733034,-0.021589,0.633948,0.662279,-0.039342,0.653962,0.615708,-0.048904,0.671415,0.580338,-0.053192,0.637599,0.756855,-0.024834,0.640572,0.735149,-0.051785,0.61883,0.774002,-0.0533,0.604361,0.807723,-0.045946,0.658854,0.792254,-0.03014,0.65711,0.768792,-0.049047,0.635194,0.793187,-0.043295,0.619442,0.81929,-0.033759,1,1,0
921,'2026/05/06 10:40:33:710',4,0.609912,0.902192,0,0.57155,0.869273,-0.025515,0.555004,0.813216,-0.039662,0.583462,0.772349,-0.052869,0.615839,0.74747,-0.06418,0.575853,0.729741,-0.023301,0.555635,0.664335,-0.043176,0.542267,0.620861,-0.057173,0.535889,0.586217,-0.0655,0.610997,0.73492,-0.023281,0.634279,0.664856,-0.040331,0.654071,0.617438,-0.050054,0.671784,0.581513,-0.055066,0.637652,0.758949,-0.026125,0.641661,0.734751,-0.051716,0.619016,0.772089,-0.053008,0.604078,0.805689,-0.046418,0.658504,0.794355,-0.030992,0.655974,0.770117,-0.050108,0.633856,0.793231,-0.045173,0.618423,0.818591,-0.036537,1,1,0
922,'2026/05/06 10:40:33:747',4,0.609912,0.902192,0,0.57155,0.869273,-0.025515,0.555004,0.813216,-0.039662,0.583462,0.772349,-0.052869,0.615839,0.74747,-0.06418,0.575853,0.729741,-0.023301,0.555635,0.664335,-0.043176,0.542267,0.620861,-0.057173,0.535889,0.586217,-0.0655,0.610997,0.73492,-0.023281,0.634279,0.664856,-0.040331,0.654071,0.617438,-0.050054,0.671784,0.581513,-0.055066,0.637652,0.758949,-0.026125,0.641661,0.734751,-0.051716,0.619016,0.772089,-0.053008,0.604078,0.805689,-0.046418,0.658504,0.794355,-0.030992,0.655974,0.770117,-0.050108,0.633856,0.793231,-0.045173,0.618423,0.818591,-0.036537,1,1,0
923,'2026/05/06 10:40:33:792',4,0.607796,0.905892,0,0.570738,0.872992,-0.025197,0.556043,0.813313,-0.038622,0.585103,0.770783,-0.051203,0.616814,0.743733,-0.061941,0.574455,0.729738,-0.022402,0.555248,0.663086,-0.042335,0.542004,0.617987,-0.056515,0.535753,0.582167,-0.06506,0.609536,0.735035,-0.022608,0.634098,0.664693,-0.039407,0.65521,0.61812,-0.048876,0.673812,0.582081,-0.053701,0.636875,0.759275,-0.025729,0.641702,0.735728,-0.051395,0.619375,0.776329,-0.051759,0.604934,0.811398,-0.044394,0.658093,0.794599,-0.030926,0.656522,0.769024,-0.050248,0.63494,0.794306,-0.044383,0.62044,0.821117,-0.034971,1,1,0
924,'2026/05/06 10:40:33:816',4,0.608046,0.903176,0,0.57066,0.870666,-0.026724,0.555721,0.813805,-0.040598,0.584758,0.772581,-0.053375,0.616179,0.745831,-0.064243,0.574232,0.729742,-0.023901,0.554614,0.665243,-0.044619,0.541604,0.62067,-0.059212,0.534797,0.584425,-0.067723,0.609299,0.734186,-0.023429,0.634027,0.66388,-0.040664,0.654423,0.61704,-0.050121,0.672451,0.581251,-0.054821,0.636621,0.758088,-0.026025,0.641028,0.736601,-0.052144,0.618039,0.776043,-0.052758,0.602998,0.809794,-0.045361,0.657722,0.793324,-0.030844,0.655603,0.770534,-0.049696,0.633666,0.794867,-0.043767,0.618723,0.820331,-0.03437,1,1,0
925,'2026/05/06 10:40:33:849',4,0.608725,0.9046,0,0.570514,0.871506,-0.027066,0.554716,0.814721,-0.041345,0.583628,0.773823,-0.054472,0.615366,0.747175,-0.065649,0.574349,0.73058,-0.023757,0.555023,0.666524,-0.044,0.542246,0.622608,-0.058348,0.535985,0.58654,-0.066784,0.609293,0.735037,-0.023208,0.633775,0.665632,-0.040527,0.654147,0.618317,-0.0502,0.67165,0.581902,-0.054981,0.636375,0.758111,-0.025798,0.640366,0.736516,-0.052274,0.617937,0.775865,-0.053569,0.603092,0.809702,-0.046478,0.657516,0.792075,-0.030589,0.65641,0.767717,-0.049779,0.634792,0.792268,-0.044296,0.619687,0.818289,-0.035156,1,1,0
926,'2026/05/06 10:40:33:878',4,0.60917,0.905731,0,0.571179,0.873946,-0.025946,0.555281,0.815831,-0.039849,0.584109,0.773854,-0.052727,0.615995,0.747232,-0.063715,0.574987,0.731357,-0.023582,0.555206,0.665287,-0.043441,0.541649,0.62002,-0.057726,0.535297,0.583632,-0.066512,0.61025,0.736286,-0.023495,0.634054,0.665632,-0.040022,0.654613,0.618647,-0.04926,0.672552,0.582625,-0.054072,0.63743,0.7602,-0.026346,0.641196,0.735775,-0.051707,0.618979,0.77578,-0.052126,0.604658,0.810247,-0.044993,0.658394,0.795614,-0.031355,0.656675,0.769201,-0.050805,0.634681,0.794648,-0.045204,0.619601,0.821564,-0.036054,1,1,0
927,'2026/05/06 10:41:00:583',5,0.654818,0.778951,0,0.626064,0.718063,-0.005267,0.588288,0.663571,-0.014473,0.575353,0.608357,-0.024537,0.576895,0.56366,-0.035619,0.515626,0.703127,-0.018885,0.495752,0.772445,-0.031637,0.517331,0.777286,-0.041715,0.532135,0.760551,-0.04893,0.51697,0.747001,-0.025576,0.499168,0.818589,-0.033389,0.522381,0.816228,-0.036154,0.538965,0.794893,-0.04068,0.528968,0.790814,-0.032162,0.512509,0.851202,-0.0397,0.533644,0.846399,-0.037165,0.548489,0.825901,-0.037373,0.545282,0.830823,-0.039768,0.536485,0.878177,-0.046073,0.555951,0.872214,-0.042551,0.569451,0.852553,-0.039481,1,1,0.6
928,'2026/05/06 10:41:00:640',5,0.656214,0.777469,0,0.625466,0.716155,-0.004341,0.587426,0.664427,-0.013628,0.574484,0.608764,-0.02399,0.575152,0.563419,-0.035495,0.515207,0.704373,-0.018178,0.495625,0.775683,-0.02998,0.517542,0.781214,-0.039648,0.531763,0.765438,-0.046812,0.517186,0.748642,-0.025157,0.499674,0.821438,-0.032167,0.522586,0.819123,-0.034969,0.538486,0.798747,-0.039788,0.529731,0.792552,-0.031805,0.514289,0.853539,-0.038105,0.534803,0.848769,-0.035405,0.548857,0.829408,-0.035869,0.546462,0.832448,-0.03943,0.538324,0.878679,-0.0446,0.557436,0.872566,-0.040596,0.570252,0.854039,-0.037407,1,1,0.6
929,'2026/05/06 10:41:00:684',5,0.653373,0.777878,0,0.624804,0.717101,-0.004738,0.586845,0.663655,-0.01338,0.574427,0.609073,-0.023143,0.575541,0.565631,-0.034027,0.515545,0.704468,-0.017022,0.496241,0.774021,-0.029769,0.518389,0.77942,-0.040309,0.53321,0.762262,-0.047959,0.516781,0.748039,-0.023909,0.499862,0.820535,-0.031785,0.523253,0.817966,-0.034866,0.539683,0.796367,-0.039513,0.528769,0.791594,-0.030797,0.513569,0.85294,-0.038186,0.53496,0.848367,-0.035694,0.549295,0.828227,-0.03591,0.545302,0.831248,-0.038745,0.53779,0.878414,-0.045108,0.557491,0.872862,-0.041735,0.570331,0.853696,-0.038725,1,1,0.6
930,'2026/05/06 10:41:00:714',5,0.657363,0.778991,0,0.625923,0.717712,-0.0031,0.587028,0.665917,-0.01175,0.574046,0.610429,-0.021817,0.575624,0.565151,-0.033035,0.515058,0.705081,-0.01554,0.494809,0.775871,-0.027156,0.517058,0.7816,-0.037156,0.531729,0.765505,-0.04457,0.517069,0.748825,-0.023002,0.499748,0.82274,-0.029634,0.522752,0.820029,-0.032586,0.538781,0.799175,-0.037458,0.529782,0.792711,-0.030166,0.5145,0.854969,-0.035939,0.534915,0.850176,-0.033245,0.548971,0.830691,-0.03376,0.546829,0.832593,-0.038278,0.539022,0.879907,-0.043058,0.558022,0.873859,-0.039065,0.570683,0.855213,-0.035868,1,1,0.6
931,'2026/05/06 10:41:00:750',5,0.653767,0.778215,0,0.625089,0.717742,-0.004409,0.587133,0.664646,-0.012731,0.574421,0.610103,-0.022347,0.574852,0.566704,-0.033057,0.514498,0.704739,-0.015549,0.495645,0.775413,-0.028562,0.517183,0.780415,-0.039535,0.531999,0.763334,-0.047326,0.515464,0.747287,-0.02263,0.499368,0.8212,-0.030356,0.522409,0.818039,-0.033684,0.538758,0.796063,-0.038459,0.527352,0.790619,-0.029822,0.513502,0.853015,-0.036998,0.534274,0.848231,-0.034686,0.548352,0.827965,-0.035016,0.543832,0.83075,-0.038156,0.538211,0.878424,-0.044482,0.557468,0.87257,-0.041421,0.569768,0.853203,-0.038562,1,1,0.6
932,'2026/05/06 10:41:00:795',5,0.652366,0.780432,0,0.624424,0.718138,-0.005055,0.58773,0.664045,-0.014204,0.575229,0.608819,-0.024309,0.576535,0.563755,-0.035686,0.515221,0.704233,-0.018915,0.495766,0.773686,-0.030937,0.517171,0.780292,-0.040851,0.531892,0.76514,-0.048233,0.516213,0.748365,-0.025612,0.499429,0.82022,-0.032715,0.52237,0.819005,-0.0358,0.538932,0.798992,-0.040846,0.528102,0.792575,-0.032015,0.512787,0.853144,-0.038791,0.533473,0.849722,-0.03645,0.548146,0.83065,-0.0371,0.544435,0.833013,-0.039437,0.536593,0.879885,-0.045435,0.555643,0.874979,-0.041949,0.568789,0.856864,-0.03905,1,1,0.6
933,'2026/05/06 10:41:00:820',5,0.655526,0.781053,0,0.62678,0.718278,-0.005484,0.589156,0.664116,-0.015026,0.576489,0.608681,-0.025454,0.578567,0.563546,-0.036939,0.516473,0.70324,-0.018974,0.496785,0.772953,-0.031448,0.518505,0.778682,-0.04165,0.533032,0.762993,-0.04917,0.517166,0.748421,-0.025525,0.499583,0.818835,-0.033436,0.522487,0.816964,-0.036725,0.538954,0.796816,-0.041747,0.528338,0.793399,-0.031855,0.512649,0.852059,-0.039161,0.533365,0.848345,-0.036638,0.548067,0.829281,-0.036983,0.543681,0.834389,-0.039249,0.535688,0.8793,-0.045336,0.555071,0.874237,-0.041612,0.568464,0.855743,-0.038442,1,1,0.6
934,'2026/05/06 10:41:00:853',5,0.656176,0.783164,0,0.626894,0.721127,-0.005618,0.58894,0.664806,-0.015564,0.576823,0.60793,-0.026253,0.578808,0.561678,-0.037995,0.515755,0.704448,-0.020662,0.496158,0.775339,-0.032875,0.517549,0.780514,-0.042865,0.531607,0.764236,-0.050248,0.516702,0.748965,-0.027212,0.500309,0.821384,-0.034314,0.52346,0.818413,-0.037365,0.539764,0.79733,-0.042611,0.52805,0.793465,-0.033371,0.51381,0.854021,-0.03958,0.534689,0.848674,-0.03712,0.54948,0.828727,-0.037962,0.543487,0.833893,-0.040666,0.536821,0.880759,-0.045931,0.556347,0.875114,-0.042223,0.569916,0.856784,-0.039344,1,1,0.6
935,'2026/05/06 10:41:00:897',5,0.653083,0.780382,0,0.625552,0.718616,-0.005939,0.58887,0.663955,-0.01542,0.577103,0.608312,-0.025804,0.578065,0.563808,-0.037399,0.515605,0.704475,-0.018952,0.496456,0.774666,-0.03149,0.517854,0.780397,-0.042,0.532163,0.764607,-0.049694,0.516006,0.748413,-0.025345,0.49958,0.820512,-0.032944,0.522572,0.818273,-0.036461,0.538776,0.797913,-0.04169,0.52737,0.792435,-0.031601,0.512262,0.853377,-0.038547,0.533117,0.849157,-0.036342,0.547572,0.829712,-0.036991,0.543259,0.832985,-0.03902,0.535524,0.880018,-0.044838,0.554451,0.875009,-0.041352,0.567397,0.856963,-0.038443,1,1,0.6
936,'2026/05/06 10:41:00:940',5,0.653756,0.783946,0,0.625502,0.721603,-0.005174,0.588145,0.66573,-0.013501,0.575689,0.610813,-0.02278,0.57745,0.566404,-0.033115,0.514983,0.705163,-0.016456,0.495026,0.774795,-0.028348,0.517419,0.781163,-0.038454,0.533309,0.765311,-0.045808,0.514696,0.748089,-0.022752,0.498782,0.820843,-0.029662,0.522501,0.820099,-0.033178,0.539482,0.800076,-0.038399,0.525683,0.791978,-0.028948,0.512266,0.853187,-0.035566,0.533724,0.849262,-0.033821,0.548886,0.829811,-0.034779,0.540981,0.832119,-0.036267,0.536085,0.879324,-0.042406,0.556213,0.87442,-0.03951,0.569728,0.855937,-0.036886,1,1,0.6
937,'2026/05/06 10:41:00:981',5,0.653632,0.785438,0,0.625983,0.722202,-0.00435,0.588479,0.666509,-0.012217,0.575265,0.611089,-0.021115,0.576966,0.566462,-0.031212,0.514682,0.70587,-0.016284,0.495541,0.775512,-0.027077,0.517735,0.782565,-0.036191,0.533182,0.767764,-0.043094,0.514155,0.749083,-0.022903,0.498631,0.822321,-0.028891,0.522108,0.821954,-0.031869,0.538965,0.802131,-0.036871,0.524961,0.793312,-0.029234,0.511411,0.855008,-0.035109,0.532771,0.851328,-0.033169,0.547618,0.831882,-0.034216,0.540251,0.833977,-0.036602,0.535171,0.881509,-0.042504,0.55519,0.876887,-0.039602,0.568157,0.85843,-0.037062,1,1,0.6
938,'2026/05/06 10:41:01:013',5,0.655053,0.786398,0,0.626119,0.722135,-0.004498,0.587718,0.666801,-0.01346,0.575019,0.610359,-0.023322,0.577058,0.56427,-0.034157,0.514151,0.70669,-0.018547,0.494076,0.780316,-0.030649,0.516248,0.785309,-0.040427,0.530959,0.76862,-0.047465,0.514936,0.751744,-0.025337,0.497963,0.825425,-0.032614,0.52174,0.821825,-0.035508,0.538728,0.800213,-0.0403,0.526484,0.796399,-0.031818,0.511426,0.857171,-0.038426,0.532629,0.851582,-0.036004,0.5476,0.831488,-0.036473,0.542443,0.837041,-0.039285,0.533912,0.882686,-0.044498,0.552933,0.876897,-0.040771,0.566378,0.858554,-0.037699,1,1,0.6
939,'2026/05/06 10:41:01:061',5,0.654244,0.785602,0,0.626024,0.723017,-0.004233,0.58838,0.665939,-0.011523,0.575223,0.610261,-0.019826,0.577261,0.5658,-0.029063,0.513292,0.704935,-0.014095,0.493544,0.774877,-0.025084,0.516306,0.780906,-0.034582,0.532505,0.764742,-0.041519,0.51299,0.748049,-0.020592,0.497052,0.820728,-0.026418,0.521083,0.81959,-0.02946,0.538105,0.799086,-0.034387,0.52413,0.792318,-0.027013,0.510613,0.853631,-0.032988,0.532277,0.849069,-0.031205,0.54724,0.829133,-0.032147,0.539677,0.833013,-0.034472,0.534638,0.880863,-0.040101,0.554726,0.875772,-0.037115,0.567758,0.857116,-0.034471,1,1,0.6
940,'2026/05/06 10:41:01:115',5,0.653384,0.785592,0,0.625023,0.723858,-0.004633,0.588048,0.666225,-0.01216,0.576222,0.609332,-0.020701,0.578104,0.564504,-0.030311,0.513434,0.704265,-0.014349,0.493531,0.774549,-0.025642,0.515926,0.7813,-0.035981,0.531854,0.765473,-0.04353,0.513303,0.747805,-0.02064,0.497135,0.820024,-0.02678,0.52025,0.819558,-0.030955,0.537322,0.799805,-0.036826,0.524094,0.79233,-0.026818,0.510489,0.852805,-0.032927,0.531332,0.849669,-0.031865,0.546605,0.83086,-0.033379,0.538789,0.833299,-0.034089,0.534157,0.881342,-0.039783,0.553879,0.877223,-0.037183,0.567356,0.859023,-0.034894,1,1,0.6
941,'2026/05/06 10:41:01:149',5,0.65329,0.784673,0,0.625159,0.722136,-0.005286,0.587872,0.665081,-0.013497,0.575493,0.609484,-0.022554,0.577408,0.564618,-0.032516,0.513502,0.703658,-0.01638,0.494111,0.774154,-0.028383,0.516728,0.780853,-0.038378,0.532391,0.764502,-0.04568,0.513197,0.747471,-0.022774,0.497327,0.82078,-0.030027,0.521392,0.820253,-0.033594,0.538273,0.799856,-0.038736,0.524203,0.792028,-0.029105,0.510668,0.853845,-0.03637,0.532562,0.849761,-0.034667,0.547445,0.829829,-0.035448,0.539611,0.832578,-0.036536,0.534704,0.880205,-0.043304,0.554944,0.875525,-0.040554,0.568049,0.856935,-0.03788,1,1,0.6
942,'2026/05/06 10:41:01:176',5,0.652785,0.787814,0,0.624208,0.72384,-0.0053,0.587342,0.665856,-0.014122,0.575944,0.608074,-0.023648,0.578644,0.562026,-0.034253,0.512197,0.705458,-0.018985,0.49475,0.775329,-0.030508,0.517002,0.780242,-0.040518,0.53218,0.76477,-0.04785,0.511728,0.750121,-0.025314,0.497666,0.82059,-0.031178,0.52087,0.818963,-0.034502,0.53762,0.7995,-0.040094,0.522778,0.79507,-0.031246,0.511119,0.853569,-0.036851,0.532059,0.848914,-0.035089,0.547127,0.8297,-0.036423,0.538087,0.836166,-0.03827,0.533214,0.881845,-0.043313,0.552549,0.876433,-0.039877,0.565954,0.858435,-0.037192,1,1,0.6
943,'2026/05/06 10:41:01:218',5,0.653993,0.788191,0,0.624963,0.723373,-0.004823,0.58741,0.663789,-0.012337,0.574983,0.607079,-0.02064,0.576734,0.562138,-0.029745,0.512068,0.702979,-0.014989,0.492374,0.775418,-0.027075,0.51585,0.781868,-0.037421,0.532388,0.765217,-0.044941,0.511312,0.746707,-0.021651,0.495292,0.818662,-0.028434,0.519727,0.818554,-0.032311,0.536862,0.798801,-0.037798,0.521863,0.791505,-0.028327,0.508696,0.851846,-0.035423,0.530814,0.849042,-0.033694,0.546022,0.830035,-0.034456,0.537023,0.832537,-0.036115,0.5318,0.880398,-0.042807,0.551835,0.877924,-0.039919,0.564583,0.860778,-0.037134,1,1,0.6
944,'2026/05/06 10:41:01:264',5,0.651361,0.78702,0,0.623862,0.722913,-0.005728,0.586873,0.664972,-0.014379,0.574476,0.608823,-0.023749,0.57699,0.562748,-0.034112,0.511027,0.704183,-0.018334,0.492632,0.77598,-0.031249,0.515297,0.781981,-0.042252,0.531334,0.765656,-0.050166,0.510433,0.749196,-0.024714,0.495472,0.820007,-0.031921,0.519068,0.819621,-0.035821,0.535844,0.800196,-0.041536,0.521419,0.794446,-0.030956,0.509026,0.85342,-0.038601,0.530204,0.849669,-0.037121,0.545345,0.830599,-0.038071,0.536567,0.835499,-0.038293,0.532142,0.881649,-0.045162,0.551955,0.877266,-0.042248,0.565456,0.859519,-0.039502,1,1,0.6
945,'2026/05/06 10:41:01:300',5,0.652748,0.790482,0,0.624509,0.724298,-0.004699,0.587313,0.665063,-0.012529,0.574701,0.607836,-0.021201,0.578607,0.561375,-0.030855,0.511403,0.70383,-0.016216,0.492673,0.776275,-0.028221,0.516408,0.782461,-0.038709,0.533189,0.766339,-0.046224,0.510762,0.749006,-0.022627,0.495179,0.82027,-0.029071,0.519952,0.819133,-0.032684,0.537479,0.799445,-0.03818,0.521326,0.794648,-0.028875,0.508805,0.853337,-0.035945,0.531198,0.848862,-0.034627,0.54721,0.829757,-0.035604,0.536009,0.83634,-0.036107,0.531026,0.88123,-0.042207,0.551498,0.876953,-0.039145,0.565638,0.859509,-0.036313,1,1,0.6
946,'2026/05/06 10:41:01:333',5,0.652723,0.789732,0,0.625154,0.724159,-0.004861,0.587845,0.665031,-0.012419,0.575244,0.608575,-0.020835,0.577457,0.562733,-0.030207,0.512865,0.703514,-0.015154,0.492701,0.772263,-0.026686,0.515624,0.779494,-0.036903,0.532097,0.764097,-0.044493,0.511786,0.747844,-0.021562,0.495284,0.818119,-0.027744,0.519171,0.818782,-0.031418,0.536527,0.799599,-0.036964,0.521968,0.793367,-0.027899,0.508168,0.851856,-0.034616,0.529595,0.849429,-0.03291,0.545095,0.830819,-0.033805,0.536582,0.834703,-0.035304,0.53091,0.880479,-0.041763,0.550519,0.877889,-0.038729,0.563693,0.860951,-0.035905,1,1,0.6
947,'2026/05/06 10:41:01:377',5,0.653559,0.787035,0,0.624937,0.723027,-0.005531,0.588092,0.664235,-0.013697,0.575948,0.607858,-0.022704,0.577314,0.562753,-0.032536,0.512001,0.703684,-0.015214,0.491812,0.777484,-0.027611,0.515097,0.783868,-0.038428,0.531219,0.766798,-0.046258,0.511219,0.746408,-0.021672,0.494878,0.820788,-0.028883,0.519297,0.820105,-0.033326,0.536319,0.799461,-0.039233,0.521478,0.790532,-0.028221,0.508897,0.853338,-0.035539,0.531057,0.849788,-0.034418,0.546125,0.829778,-0.035673,0.535971,0.831295,-0.035976,0.532276,0.88087,-0.042841,0.552857,0.87742,-0.040421,0.56578,0.859217,-0.038052,1,1,0.6
948,'2026/05/06 10:41:01:419',5,0.653559,0.787035,0,0.624937,0.723027,-0.005531,0.588092,0.664235,-0.013697,0.575948,0.607858,-0.022704,0.577314,0.562753,-0.032536,0.512001,0.703684,-0.015214,0.491812,0.777484,-0.027611,0.515097,0.783868,-0.038428,0.531219,0.766798,-0.046258,0.511219,0.746408,-0.021672,0.494878,0.820788,-0.028883,0.519297,0.820105,-0.033326,0.536319,0.799461,-0.039233,0.521478,0.790532,-0.028221,0.508897,0.853338,-0.035539,0.531057,0.849788,-0.034418,0.546125,0.829778,-0.035673,0.535971,0.831295,-0.035976,0.532276,0.88087,-0.042841,0.552857,0.87742,-0.040421,0.56578,0.859217,-0.038052,1,1,0.6
949,'2026/05/06 10:41:01:462',5,0.653809,0.787477,0,0.626958,0.723326,-0.004346,0.588631,0.665864,-0.011775,0.57494,0.609619,-0.020136,0.576768,0.564074,-0.029664,0.512211,0.704673,-0.01545,0.493757,0.776494,-0.027475,0.516697,0.782151,-0.038398,0.532939,0.765081,-0.046362,0.511396,0.749293,-0.022056,0.496014,0.820306,-0.028073,0.519533,0.81963,-0.031659,0.5369,0.800093,-0.037163,0.522267,0.794544,-0.028531,0.509901,0.85353,-0.034619,0.530956,0.850097,-0.033013,0.54608,0.831372,-0.034154,0.537828,0.835879,-0.036073,0.533973,0.880853,-0.041755,0.553785,0.876428,-0.038786,0.566753,0.85863,-0.036188,1,1,0.6
950,'2026/05/06 10:41:01:489',5,0.65299,0.786468,0,0.624297,0.719046,-0.005305,0.587894,0.66419,-0.014343,0.576091,0.606999,-0.024228,0.578913,0.560813,-0.035357,0.511812,0.706707,-0.019168,0.492865,0.778973,-0.030177,0.514172,0.784672,-0.039967,0.529173,0.771048,-0.047328,0.512743,0.753906,-0.025342,0.497415,0.824742,-0.031729,0.520541,0.822052,-0.035445,0.538051,0.802437,-0.041317,0.524902,0.800261,-0.030951,0.513537,0.858156,-0.037289,0.534104,0.852809,-0.035918,0.549509,0.833732,-0.037326,0.540727,0.84251,-0.037551,0.536277,0.886158,-0.043083,0.555183,0.88022,-0.039769,0.568673,0.861725,-0.037097,1,1,0.6
951,'2026/05/06 10:41:01:534',5,0.653971,0.788785,0,0.626122,0.722987,-0.004945,0.589213,0.665671,-0.012923,0.576598,0.608188,-0.0217,0.579809,0.562225,-0.03171,0.513251,0.706338,-0.017147,0.494966,0.778271,-0.028603,0.516636,0.783609,-0.038989,0.53208,0.768669,-0.046552,0.513025,0.751355,-0.023288,0.497694,0.823541,-0.029038,0.520459,0.821513,-0.032836,0.537567,0.801967,-0.038822,0.524276,0.796704,-0.029107,0.512278,0.856745,-0.034985,0.533033,0.852,-0.034035,0.548623,0.833084,-0.035758,0.539735,0.838528,-0.035975,0.534827,0.885494,-0.041095,0.55379,0.880416,-0.038253,0.567321,0.862524,-0.036014,1,1,0.6
952,'2026/05/06 10:41:01:568',5,0.653999,0.789389,0,0.625418,0.724929,-0.006933,0.587845,0.666331,-0.016336,0.575353,0.609008,-0.026225,0.577686,0.562796,-0.036955,0.510842,0.705446,-0.020882,0.492166,0.779366,-0.03413,0.51514,0.785487,-0.044851,0.531021,0.769633,-0.052478,0.510202,0.749671,-0.026979,0.495773,0.824735,-0.034883,0.520156,0.823104,-0.038805,0.536934,0.80286,-0.044545,0.521413,0.794631,-0.032929,0.510473,0.857785,-0.040808,0.532586,0.852556,-0.039456,0.547924,0.832278,-0.040596,0.536939,0.836184,-0.040119,0.532799,0.885465,-0.04727,0.552653,0.880521,-0.044741,0.566055,0.862096,-0.042306,1,1,0.6
953,'2026/05/06 10:41:01:602',5,0.651703,0.789203,0,0.623344,0.724838,-0.004332,0.586081,0.66627,-0.011831,0.573834,0.609212,-0.020274,0.576783,0.563855,-0.029952,0.509463,0.704736,-0.016038,0.492826,0.77423,-0.027111,0.514872,0.781548,-0.037503,0.530324,0.7668,-0.045282,0.508458,0.749855,-0.022787,0.495329,0.820226,-0.028313,0.518565,0.819941,-0.032202,0.535614,0.801112,-0.038137,0.519433,0.795796,-0.029203,0.509349,0.8552,-0.035159,0.530838,0.851245,-0.03422,0.546414,0.832462,-0.0359,0.53488,0.837947,-0.036632,0.532092,0.88452,-0.042514,0.551917,0.879589,-0.039908,0.565509,0.861537,-0.037584,1,1,0.6
954,'2026/05/06 10:41:01:631',5,0.652646,0.792243,0,0.624184,0.72506,-0.004014,0.587268,0.665489,-0.011015,0.574353,0.608939,-0.018901,0.575756,0.562743,-0.027854,0.509672,0.702987,-0.014487,0.490878,0.771417,-0.024545,0.513571,0.779546,-0.034085,0.529936,0.765111,-0.041561,0.507621,0.747311,-0.021164,0.493557,0.817977,-0.026149,0.517479,0.819334,-0.030271,0.53483,0.800702,-0.036526,0.51762,0.79308,-0.02743,0.506828,0.852924,-0.033236,0.52815,0.850592,-0.032255,0.543578,0.832124,-0.034053,0.532105,0.83504,-0.034667,0.528967,0.882616,-0.040987,0.548884,0.879733,-0.038357,0.562094,0.862426,-0.035943,1,1,0.6
955,'2026/05/06 10:41:01:677',5,0.650532,0.787016,0,0.622636,0.722088,-0.003872,0.585502,0.665624,-0.011221,0.57275,0.60893,-0.019688,0.575007,0.563411,-0.029492,0.509548,0.704745,-0.015069,0.492458,0.776324,-0.025746,0.514853,0.783249,-0.035744,0.530425,0.768334,-0.043314,0.50861,0.749567,-0.021885,0.494687,0.822,-0.027063,0.517736,0.821632,-0.030816,0.534776,0.802437,-0.036786,0.519407,0.795372,-0.028385,0.508544,0.855909,-0.033889,0.529769,0.85199,-0.032671,0.545279,0.832816,-0.034329,0.534882,0.837539,-0.035898,0.531166,0.883995,-0.041224,0.550976,0.879314,-0.038235,0.564611,0.861329,-0.035811,1,1,0.6
956,'2026/05/06 10:41:01:716',5,0.650515,0.790378,0,0.623427,0.724816,-0.004318,0.585979,0.664865,-0.011086,0.572556,0.609311,-0.018806,0.574822,0.563115,-0.027708,0.510429,0.701881,-0.014557,0.491984,0.770166,-0.025414,0.51461,0.779238,-0.03564,0.531254,0.765381,-0.043413,0.508409,0.746014,-0.021083,0.493683,0.816402,-0.026361,0.517479,0.818348,-0.030336,0.534967,0.800526,-0.036455,0.5183,0.791839,-0.027379,0.505141,0.851892,-0.033752,0.527259,0.850145,-0.032683,0.543621,0.831861,-0.034286,0.532607,0.83389,-0.034657,0.526824,0.883194,-0.041121,0.546991,0.881005,-0.038357,0.561188,0.864175,-0.035923,1,1,0.6
957,'2026/05/06 10:41:01:743',5,0.650515,0.790378,0,0.623427,0.724816,-0.004318,0.585979,0.664865,-0.011086,0.572556,0.609311,-0.018806,0.574822,0.563115,-0.027708,0.510429,0.701881,-0.014557,0.491984,0.770166,-0.025414,0.51461,0.779238,-0.03564,0.531254,0.765381,-0.043413,0.508409,0.746014,-0.021083,0.493683,0.816402,-0.026361,0.517479,0.818348,-0.030336,0.534967,0.800526,-0.036455,0.5183,0.791839,-0.027379,0.505141,0.851892,-0.033752,0.527259,0.850145,-0.032683,0.543621,0.831861,-0.034286,0.532607,0.83389,-0.034657,0.526824,0.883194,-0.041121,0.546991,0.881005,-0.038357,0.561188,0.864175,-0.035923,1,1,0.6
958,'2026/05/06 10:41:01:776',5,0.649077,0.789144,0,0.620511,0.723867,-0.004893,0.583383,0.665928,-0.012173,0.571113,0.609971,-0.020145,0.57318,0.564983,-0.029214,0.50773,0.707735,-0.015433,0.491356,0.775326,-0.025085,0.513531,0.781945,-0.034416,0.529275,0.767236,-0.04174,0.507108,0.752634,-0.021256,0.49512,0.822292,-0.025711,0.51754,0.822083,-0.029646,0.534237,0.803464,-0.035874,0.518589,0.797845,-0.026656,0.50878,0.856267,-0.03149,0.52861,0.85276,-0.030756,0.543415,0.834667,-0.032892,0.53427,0.838803,-0.033118,0.531631,0.883795,-0.038453,0.550139,0.879591,-0.035932,0.562681,0.86231,-0.03381,1,1,0.6
959,'2026/05/06 10:41:01:808',5,0.652266,0.790875,0,0.623652,0.727238,-0.004935,0.585581,0.66597,-0.011928,0.571715,0.610169,-0.019457,0.572759,0.565693,-0.027801,0.508206,0.706699,-0.015248,0.489335,0.777079,-0.026407,0.512347,0.784102,-0.036349,0.529015,0.76801,-0.04376,0.507929,0.750258,-0.021568,0.49326,0.822785,-0.027762,0.517632,0.822165,-0.03184,0.535071,0.802058,-0.037602,0.519286,0.793806,-0.027697,0.506616,0.855633,-0.034598,0.528463,0.851996,-0.033256,0.54394,0.832573,-0.03432,0.534798,0.833483,-0.034887,0.52867,0.882957,-0.041768,0.548415,0.880212,-0.038956,0.561518,0.862566,-0.036152,1,1,0.6
960,'2026/05/06 10:41:01:839',5,0.649711,0.788804,0,0.621159,0.723374,-0.003365,0.584035,0.666144,-0.010155,0.571455,0.609844,-0.018088,0.57308,0.564871,-0.027376,0.50897,0.706631,-0.013837,0.491193,0.775234,-0.023185,0.513092,0.78399,-0.032433,0.529103,0.770232,-0.039792,0.50785,0.751014,-0.020527,0.494625,0.822294,-0.024427,0.517177,0.824147,-0.028119,0.534344,0.806056,-0.034331,0.518799,0.796457,-0.026742,0.507935,0.856287,-0.031008,0.528382,0.854137,-0.029959,0.543694,0.836301,-0.032119,0.534386,0.837599,-0.033943,0.531301,0.884127,-0.038982,0.550239,0.881202,-0.036273,0.562933,0.864649,-0.034164,1,1,0.6
961,'2026/05/06 10:41:01:877',5,0.651887,0.78946,0,0.622441,0.724163,-0.003145,0.584221,0.668989,-0.010671,0.57121,0.61216,-0.019284,0.574966,0.566211,-0.029286,0.508125,0.708919,-0.01595,0.49108,0.776473,-0.024786,0.512946,0.78437,-0.033522,0.528314,0.772014,-0.04058,0.507869,0.754553,-0.022651,0.49498,0.823438,-0.026385,0.517833,0.8234,-0.029394,0.535016,0.805789,-0.035129,0.519802,0.800118,-0.028593,0.509295,0.856824,-0.03253,0.529588,0.853068,-0.031105,0.545014,0.835803,-0.033002,0.536155,0.841521,-0.035398,0.532733,0.884822,-0.039791,0.551616,0.87962,-0.036578,0.564997,0.862442,-0.03413,1,1,0.6
962,'2026/05/06 10:41:01:931',5,0.65171,0.788712,0,0.623385,0.725611,-0.00471,0.585543,0.667169,-0.012686,0.572027,0.610013,-0.021553,0.574266,0.564049,-0.031617,0.509818,0.704052,-0.0179,0.491396,0.774197,-0.029062,0.513587,0.782267,-0.038839,0.529131,0.767987,-0.046181,0.508532,0.748819,-0.024432,0.495164,0.821906,-0.030235,0.518634,0.822004,-0.033766,0.535386,0.802669,-0.039526,0.518991,0.794835,-0.030537,0.508931,0.856293,-0.036713,0.530165,0.852238,-0.035393,0.54555,0.832613,-0.036912,0.533412,0.837426,-0.037665,0.530646,0.885908,-0.043818,0.550545,0.88113,-0.041195,0.564226,0.862628,-0.038864,1,1,0.6
963,'2026/05/06 10:41:01:966',5,0.648671,0.787047,0,0.620761,0.721854,-0.004123,0.584134,0.666868,-0.011996,0.571527,0.610694,-0.02092,0.573909,0.565067,-0.031362,0.508487,0.7074,-0.016083,0.493367,0.77476,-0.025759,0.514095,0.782944,-0.035566,0.528768,0.770856,-0.043287,0.507604,0.753562,-0.022452,0.495765,0.820658,-0.026866,0.517394,0.821129,-0.030984,0.53418,0.80434,-0.037481,0.518647,0.799786,-0.028181,0.509258,0.855222,-0.033141,0.529321,0.852163,-0.032526,0.545089,0.835476,-0.034735,0.533939,0.841854,-0.034835,0.531808,0.88483,-0.039947,0.550426,0.880359,-0.037182,0.563838,0.863604,-0.034973,1,1,0.6
964,'2026/05/06 10:41:02:000',5,0.650896,0.787465,0,0.624138,0.723968,-0.005927,0.585568,0.66683,-0.013709,0.572116,0.611338,-0.022216,0.573007,0.566573,-0.031776,0.508659,0.707166,-0.01628,0.491284,0.777801,-0.028435,0.514319,0.785115,-0.039293,0.530542,0.769336,-0.047197,0.507577,0.751093,-0.022197,0.495223,0.823723,-0.028756,0.519144,0.823214,-0.032851,0.536019,0.803028,-0.038558,0.518474,0.796062,-0.028073,0.508961,0.857104,-0.035118,0.530822,0.853128,-0.033821,0.546024,0.833071,-0.034867,0.533973,0.837427,-0.035147,0.532322,0.885083,-0.042107,0.552911,0.880389,-0.039419,0.566482,0.861882,-0.036617,1,1,0.6
965,'2026/05/06 10:41:02:030',5,0.652528,0.788959,0,0.624359,0.725572,-0.005189,0.58546,0.667245,-0.012783,0.571919,0.611296,-0.021108,0.573498,0.566261,-0.030426,0.508036,0.707824,-0.015603,0.49113,0.779236,-0.027012,0.514333,0.785538,-0.037328,0.530596,0.769126,-0.04502,0.507219,0.751928,-0.021909,0.495026,0.82441,-0.028209,0.519078,0.82366,-0.032408,0.535973,0.803804,-0.038281,0.518405,0.796802,-0.028022,0.50858,0.857614,-0.034673,0.530076,0.853831,-0.033448,0.544955,0.834363,-0.034711,0.533978,0.837762,-0.035264,0.531176,0.884851,-0.041924,0.551186,0.880965,-0.039202,0.56404,0.863003,-0.036513,1,1,0.6
966,'2026/05/06 10:41:02:070',5,0.648188,0.787313,0,0.620121,0.723902,-0.004225,0.582901,0.668531,-0.012317,0.570295,0.612049,-0.021471,0.572771,0.566012,-0.032165,0.507036,0.708178,-0.016151,0.492734,0.776794,-0.025654,0.513859,0.785898,-0.035413,0.528682,0.773578,-0.043203,0.506048,0.753768,-0.022555,0.495371,0.823099,-0.02675,0.517371,0.824499,-0.03081,0.534335,0.807775,-0.037328,0.517219,0.799487,-0.02832,0.508201,0.857312,-0.032998,0.528339,0.854711,-0.032367,0.544141,0.837721,-0.034674,0.532725,0.840991,-0.035046,0.530415,0.885718,-0.040051,0.549272,0.881634,-0.037277,0.562917,0.865003,-0.035072,1,1,0.6
967,'2026/05/06 10:41:02:101',5,0.650408,0.789326,0,0.621202,0.724982,-0.003819,0.583666,0.668421,-0.011839,0.570501,0.611202,-0.021112,0.572555,0.56503,-0.031941,0.506868,0.707368,-0.015535,0.491767,0.774656,-0.02531,0.513,0.783978,-0.035397,0.527819,0.771803,-0.043427,0.505614,0.752529,-0.022351,0.495133,0.822766,-0.026807,0.517683,0.823877,-0.031093,0.534621,0.806498,-0.037748,0.516445,0.798703,-0.028579,0.508433,0.857294,-0.033351,0.529216,0.854045,-0.032829,0.545192,0.83659,-0.035207,0.531926,0.840941,-0.035778,0.53076,0.886379,-0.040786,0.549824,0.881811,-0.038145,0.563423,0.864688,-0.036003,1,1,0.6
968,'2026/05/06 10:41:02:131',5,0.645179,0.787026,0,0.618486,0.724143,-0.00723,0.582061,0.668908,-0.016601,0.5691,0.612609,-0.026509,0.571213,0.566499,-0.037738,0.505104,0.71053,-0.020212,0.491481,0.778519,-0.031764,0.512582,0.786173,-0.042311,0.527067,0.773546,-0.050346,0.504597,0.75611,-0.025751,0.494497,0.824622,-0.032143,0.516599,0.824765,-0.036505,0.532889,0.807391,-0.042914,0.516132,0.80133,-0.030954,0.507791,0.85854,-0.037874,0.528106,0.854509,-0.037146,0.543549,0.836582,-0.038876,0.532014,0.842327,-0.037354,0.529977,0.887419,-0.04391,0.548435,0.882508,-0.041407,0.561659,0.8651,-0.039141,1,1,0.6
969,'2026/05/06 10:41:02:164',5,0.645179,0.787026,0,0.618486,0.724143,-0.00723,0.582061,0.668908,-0.016601,0.5691,0.612609,-0.026509,0.571213,0.566499,-0.037738,0.505104,0.71053,-0.020212,0.491481,0.778519,-0.031764,0.512582,0.786173,-0.042311,0.527067,0.773546,-0.050346,0.504597,0.75611,-0.025751,0.494497,0.824622,-0.032143,0.516599,0.824765,-0.036505,0.532889,0.807391,-0.042914,0.516132,0.80133,-0.030954,0.507791,0.85854,-0.037874,0.528106,0.854509,-0.037146,0.543549,0.836582,-0.038876,0.532014,0.842327,-0.037354,0.529977,0.887419,-0.04391,0.548435,0.882508,-0.041407,0.561659,0.8651,-0.039141,1,1,0.6
970,'2026/05/06 10:41:02:191',5,0.646189,0.783484,0,0.617538,0.719527,-0.004612,0.580963,0.667541,-0.012462,0.567763,0.612224,-0.021421,0.568518,0.567083,-0.03197,0.505884,0.711573,-0.014371,0.491488,0.779505,-0.023791,0.512614,0.787703,-0.033864,0.527437,0.775851,-0.041844,0.505386,0.757742,-0.020438,0.493937,0.825252,-0.0245,0.515395,0.82666,-0.028985,0.532222,0.810268,-0.035689,0.517035,0.803268,-0.026056,0.507149,0.85924,-0.030929,0.5268,0.857199,-0.030626,0.542287,0.840598,-0.032981,0.533256,0.844348,-0.032642,0.529521,0.887652,-0.037714,0.547897,0.883721,-0.034792,0.561133,0.867075,-0.032423,1,1,0.6
971,'2026/05/06 10:41:02:223',5,0.644647,0.7838,0,0.616341,0.720745,-0.007118,0.578776,0.668002,-0.016536,0.566445,0.612649,-0.026669,0.568125,0.566924,-0.037921,0.504592,0.713179,-0.019152,0.49101,0.781546,-0.032616,0.51305,0.784642,-0.044714,0.527582,0.768253,-0.053514,0.505252,0.759476,-0.025114,0.493679,0.827503,-0.0331,0.515945,0.824526,-0.037615,0.532154,0.804758,-0.043647,0.517656,0.804416,-0.031134,0.507788,0.860917,-0.039134,0.527978,0.855128,-0.037872,0.542502,0.834883,-0.03883,0.534793,0.844177,-0.038417,0.530497,0.88824,-0.045157,0.548807,0.88172,-0.042069,0.561634,0.862163,-0.039253,1,1,0.6
972,'2026/05/06 10:41:02:260',5,0.646085,0.789626,0,0.618449,0.726075,-0.005936,0.58068,0.669309,-0.014041,0.566808,0.613835,-0.022763,0.569318,0.567344,-0.032541,0.503561,0.71084,-0.017975,0.490251,0.779778,-0.029084,0.51263,0.786776,-0.038848,0.527958,0.771971,-0.046291,0.503085,0.755758,-0.023848,0.493539,0.82677,-0.029825,0.517137,0.826687,-0.033521,0.53352,0.807477,-0.03935,0.514762,0.800785,-0.029416,0.505909,0.860041,-0.036521,0.52749,0.855582,-0.035428,0.542765,0.83591,-0.036716,0.530855,0.841441,-0.036034,0.52828,0.887571,-0.042943,0.547933,0.882911,-0.040233,0.561548,0.864976,-0.037593,1,1,0.6
973,'2026/05/06 10:41:02:285',5,0.644416,0.788113,0,0.617548,0.723496,-0.006382,0.580321,0.667301,-0.014464,0.566672,0.612732,-0.023311,0.567135,0.567078,-0.033314,0.50401,0.710394,-0.016395,0.490994,0.77909,-0.02891,0.51361,0.786084,-0.040342,0.529792,0.771981,-0.048743,0.50199,0.754495,-0.022395,0.492935,0.82467,-0.029324,0.516435,0.825596,-0.034113,0.533389,0.807299,-0.040387,0.512542,0.799548,-0.028454,0.504628,0.858042,-0.03668,0.526554,0.855008,-0.036023,0.542466,0.83583,-0.037288,0.528278,0.840437,-0.035693,0.528158,0.887052,-0.043989,0.548804,0.883539,-0.04185,0.562615,0.866109,-0.039285,1,1,0.6
974,'2026/05/06 10:41:02:319',5,0.645763,0.785952,0,0.617412,0.721081,-0.005635,0.579323,0.667081,-0.01361,0.565297,0.612854,-0.022358,0.56702,0.568543,-0.032244,0.502709,0.713083,-0.017795,0.489036,0.783889,-0.029747,0.511741,0.787109,-0.040714,0.526683,0.770335,-0.048867,0.503198,0.758357,-0.024028,0.49331,0.830181,-0.030451,0.516654,0.826722,-0.034726,0.532859,0.805896,-0.040876,0.515526,0.803199,-0.030052,0.508231,0.863501,-0.036959,0.529653,0.856353,-0.036068,0.544433,0.835042,-0.037573,0.532749,0.843748,-0.037216,0.530742,0.889895,-0.043806,0.550062,0.883007,-0.041093,0.562941,0.863553,-0.038574,1,1,0.6
975,'2026/05/06 10:41:02:364',5,0.642869,0.787846,0,0.616365,0.723312,-0.00601,0.578709,0.667837,-0.013253,0.564912,0.613587,-0.021263,0.566504,0.570037,-0.03052,0.504496,0.713769,-0.016008,0.491362,0.780849,-0.028116,0.513557,0.786244,-0.039631,0.529467,0.771643,-0.04801,0.504108,0.759887,-0.021714,0.493769,0.825511,-0.027931,0.515729,0.824944,-0.032492,0.532574,0.80707,-0.038738,0.515245,0.805515,-0.027456,0.507024,0.860056,-0.034912,0.527663,0.855965,-0.034621,0.543448,0.83732,-0.036222,0.530498,0.846445,-0.034323,0.529332,0.889352,-0.041231,0.548478,0.885042,-0.038921,0.561858,0.867741,-0.03663,1,1,0.6
976,'2026/05/06 10:41:02:411',5,0.644819,0.785557,0,0.616178,0.721324,-0.005488,0.578676,0.668725,-0.013792,0.565284,0.613607,-0.022877,0.566373,0.568673,-0.033376,0.504369,0.714161,-0.017654,0.491143,0.783841,-0.028016,0.512083,0.790022,-0.037939,0.526289,0.776604,-0.0456,0.504118,0.760242,-0.023505,0.493954,0.830352,-0.028763,0.515543,0.829447,-0.032765,0.531819,0.811193,-0.038944,0.516185,0.805483,-0.028915,0.507443,0.863348,-0.034726,0.527071,0.859075,-0.033998,0.54195,0.840824,-0.035849,0.532843,0.846518,-0.035349,0.529524,0.890451,-0.041154,0.547754,0.885118,-0.038423,0.560583,0.867294,-0.036035,1,1,0.6
977,'2026/05/06 10:41:02:441',5,0.645733,0.788058,0,0.617354,0.725527,-0.006334,0.57898,0.669839,-0.014788,0.565726,0.614648,-0.023885,0.567023,0.56959,-0.033975,0.503438,0.712925,-0.017764,0.489643,0.783142,-0.030496,0.512112,0.788496,-0.041896,0.527349,0.772422,-0.050175,0.503098,0.757897,-0.023748,0.49311,0.829883,-0.030925,0.516841,0.828689,-0.035359,0.532998,0.808686,-0.041379,0.514992,0.802855,-0.029683,0.505961,0.862963,-0.037671,0.527296,0.857731,-0.036671,0.54215,0.837411,-0.037725,0.531459,0.843223,-0.036767,0.529005,0.889124,-0.044391,0.549057,0.883656,-0.041711,0.562539,0.86509,-0.038846,1,1,0.6
978,'2026/05/06 10:41:02:473',5,0.646246,0.787283,0,0.617464,0.723847,-0.005129,0.579714,0.669355,-0.012949,0.565761,0.614123,-0.021772,0.567227,0.568741,-0.031889,0.503584,0.711297,-0.014846,0.48956,0.780801,-0.026115,0.511502,0.78817,-0.037059,0.526602,0.774162,-0.045376,0.502961,0.75609,-0.021167,0.492032,0.827878,-0.02732,0.515499,0.828359,-0.032053,0.532046,0.809402,-0.038506,0.514481,0.801369,-0.027331,0.504473,0.861643,-0.034276,0.525992,0.857558,-0.033544,0.541313,0.837902,-0.035121,0.53075,0.842406,-0.034549,0.527527,0.888752,-0.041302,0.547527,0.883724,-0.038514,0.561057,0.865035,-0.035856,1,1,0.6
979,'2026/05/06 10:41:02:514',5,0.645056,0.785567,0,0.615846,0.722651,-0.005041,0.578103,0.66993,-0.013006,0.565369,0.614122,-0.022013,0.56563,0.569476,-0.032425,0.503541,0.714696,-0.015074,0.488893,0.784804,-0.025631,0.51024,0.791122,-0.036147,0.524983,0.776998,-0.044225,0.503709,0.759777,-0.021137,0.492687,0.830828,-0.026047,0.514901,0.830064,-0.03028,0.531332,0.810841,-0.036667,0.51597,0.804676,-0.026972,0.507121,0.863571,-0.032317,0.527048,0.859439,-0.031483,0.541879,0.840479,-0.033409,0.532937,0.845422,-0.03391,0.530406,0.889732,-0.039396,0.549168,0.884431,-0.036558,0.561914,0.866281,-0.034162,1,1,0.6
980,'2026/05/06 10:41:02:559',5,0.646658,0.789729,0,0.616745,0.725112,-0.004962,0.577329,0.670853,-0.01294,0.563427,0.615454,-0.022083,0.56611,0.569451,-0.032588,0.50258,0.713278,-0.01521,0.489369,0.781205,-0.027239,0.510782,0.787428,-0.038863,0.525707,0.77341,-0.047497,0.501988,0.759865,-0.021744,0.491976,0.827772,-0.028521,0.514541,0.827211,-0.033369,0.531007,0.808657,-0.03975,0.513937,0.805877,-0.028162,0.504694,0.861721,-0.035821,0.525343,0.85754,-0.035219,0.54096,0.8388,-0.036549,0.530533,0.847152,-0.035605,0.527551,0.889942,-0.042499,0.546872,0.884364,-0.03972,0.560682,0.866027,-0.036924,1,1,0.6
981,'2026/05/06 10:41:02:618',5,0.646658,0.789729,0,0.616745,0.725112,-0.004962,0.577329,0.670853,-0.01294,0.563427,0.615454,-0.022083,0.56611,0.569451,-0.032588,0.50258,0.713278,-0.01521,0.489369,0.781205,-0.027239,0.510782,0.787428,-0.038863,0.525707,0.77341,-0.047497,0.501988,0.759865,-0.021744,0.491976,0.827772,-0.028521,0.514541,0.827211,-0.033369,0.531007,0.808657,-0.03975,0.513937,0.805877,-0.028162,0.504694,0.861721,-0.035821,0.525343,0.85754,-0.035219,0.54096,0.8388,-0.036549,0.530533,0.847152,-0.035605,0.527551,0.889942,-0.042499,0.546872,0.884364,-0.03972,0.560682,0.866027,-0.036924,1,1,0.6
982,'2026/05/06 10:41:02:644',5,0.643647,0.78459,0,0.614388,0.723144,-0.005694,0.576471,0.671015,-0.014424,0.56353,0.615991,-0.024227,0.564745,0.571175,-0.035357,0.503562,0.716454,-0.015899,0.48809,0.783182,-0.027658,0.50944,0.790323,-0.038641,0.524763,0.776847,-0.046831,0.503895,0.761542,-0.022104,0.490926,0.829299,-0.02868,0.512807,0.829391,-0.032955,0.529505,0.811063,-0.038728,0.515998,0.805807,-0.028266,0.504577,0.862719,-0.035237,0.524442,0.860043,-0.034198,0.539505,0.841977,-0.035347,0.53252,0.845555,-0.035553,0.527812,0.889923,-0.042138,0.546465,0.885781,-0.039318,0.559487,0.868044,-0.03656,1,1,0.6
983,'2026/05/06 10:41:02:674',5,0.644264,0.78776,0,0.615579,0.723965,-0.004738,0.576896,0.671403,-0.012323,0.562651,0.617442,-0.020925,0.563921,0.57294,-0.030929,0.502621,0.714561,-0.015524,0.488354,0.781983,-0.026171,0.509976,0.788646,-0.036541,0.525198,0.774932,-0.044562,0.502192,0.760422,-0.021799,0.490772,0.828346,-0.027205,0.51277,0.828511,-0.03136,0.529393,0.81068,-0.037447,0.514094,0.805831,-0.027758,0.503871,0.862072,-0.03385,0.523784,0.858961,-0.033052,0.538847,0.841079,-0.034717,0.530745,0.846633,-0.034717,0.527722,0.889365,-0.040971,0.546691,0.884267,-0.03835,0.559746,0.866102,-0.03589,1,1,0.6
984,'2026/05/06 10:41:02:705',5,0.643102,0.784396,0,0.614476,0.723565,-0.006199,0.576506,0.670309,-0.014516,0.563419,0.615462,-0.023668,0.563938,0.571905,-0.034018,0.502501,0.716006,-0.016226,0.487715,0.784208,-0.028171,0.509852,0.789329,-0.039237,0.524941,0.773825,-0.047487,0.502631,0.760459,-0.022138,0.490994,0.830177,-0.028727,0.51369,0.828858,-0.033043,0.530155,0.80889,-0.038917,0.514806,0.804411,-0.028104,0.504514,0.863045,-0.03529,0.524905,0.858401,-0.03441,0.539386,0.838095,-0.035694,0.531652,0.843821,-0.035226,0.528242,0.88904,-0.042141,0.547444,0.883502,-0.03955,0.56005,0.864008,-0.036957,1,1,0.6
985,'2026/05/06 10:41:02:750',5,0.644614,0.78569,0,0.615479,0.723503,-0.006422,0.577108,0.670608,-0.014954,0.563725,0.615582,-0.024338,0.56445,0.570907,-0.034897,0.501497,0.71531,-0.01615,0.488485,0.785657,-0.028364,0.510443,0.790181,-0.039971,0.525277,0.774462,-0.048474,0.501248,0.759994,-0.022076,0.492395,0.831605,-0.028674,0.515257,0.828854,-0.033465,0.531557,0.808168,-0.039637,0.513623,0.804504,-0.028069,0.50644,0.864033,-0.035351,0.527049,0.858146,-0.034966,0.541635,0.837209,-0.036439,0.530876,0.844953,-0.035282,0.528992,0.889681,-0.04221,0.548073,0.883503,-0.039838,0.560696,0.86417,-0.03726,1,1,0.6
986,'2026/05/06 10:41:02:801',5,0.644225,0.786406,0,0.615108,0.724902,-0.004276,0.576681,0.671228,-0.011907,0.563452,0.616235,-0.020553,0.564889,0.571892,-0.030565,0.502287,0.71388,-0.01617,0.487655,0.784234,-0.027289,0.50952,0.789977,-0.037904,0.524334,0.774901,-0.045959,0.502198,0.758457,-0.022783,0.490774,0.830972,-0.028136,0.513751,0.829389,-0.031941,0.53019,0.809156,-0.03791,0.514251,0.803541,-0.02908,0.505772,0.864536,-0.034589,0.526533,0.858934,-0.03342,0.541121,0.83815,-0.035102,0.531113,0.844582,-0.036432,0.528652,0.890654,-0.04185,0.547648,0.884268,-0.038994,0.56011,0.86475,-0.036618,1,1,0.6
987,'2026/05/06 10:41:02:829',5,0.643215,0.784671,0,0.6153,0.72232,-0.00696,0.577342,0.669066,-0.015526,0.563735,0.614469,-0.024904,0.563811,0.570823,-0.035606,0.502803,0.716208,-0.017298,0.488522,0.783924,-0.029799,0.509932,0.790193,-0.041381,0.525027,0.776631,-0.0498,0.503229,0.761775,-0.022879,0.492304,0.829745,-0.030135,0.513948,0.82919,-0.034999,0.53049,0.811175,-0.041166,0.515645,0.806287,-0.028534,0.505936,0.862749,-0.03656,0.52542,0.859273,-0.03609,0.540451,0.841295,-0.03738,0.53236,0.846469,-0.035375,0.52867,0.890312,-0.042605,0.546538,0.885473,-0.040171,0.559181,0.867433,-0.037588,1,1,0.6
988,'2026/05/06 10:41:02:860',5,0.645698,0.785548,0,0.616507,0.72263,-0.006593,0.576411,0.670648,-0.015886,0.563132,0.615546,-0.026089,0.564516,0.570629,-0.037604,0.503528,0.716442,-0.018778,0.488624,0.786091,-0.03194,0.509745,0.792035,-0.043899,0.523912,0.777249,-0.052722,0.504104,0.7626,-0.024879,0.492516,0.83323,-0.033016,0.51408,0.831803,-0.037854,0.53012,0.811992,-0.044036,0.516246,0.807772,-0.03092,0.506413,0.86606,-0.038934,0.52611,0.861765,-0.037829,0.540821,0.842087,-0.038907,0.532929,0.847892,-0.038214,0.530187,0.89231,-0.045489,0.548914,0.887101,-0.04278,0.562025,0.8682,-0.040048,1,1,0.6
989,'2026/05/06 10:41:02:895',5,0.645817,0.788326,0,0.617467,0.72586,-0.004178,0.57784,0.672472,-0.011085,0.563045,0.618068,-0.019025,0.564602,0.573724,-0.028338,0.50317,0.713882,-0.014325,0.487725,0.781963,-0.024074,0.509535,0.789672,-0.03392,0.525027,0.776482,-0.041611,0.502771,0.759311,-0.020587,0.490693,0.82917,-0.025175,0.513471,0.829399,-0.029194,0.530445,0.811196,-0.035271,0.514661,0.804468,-0.026459,0.504983,0.863524,-0.031655,0.525483,0.859862,-0.030998,0.540717,0.841444,-0.032965,0.53098,0.845275,-0.033312,0.527799,0.890861,-0.038782,0.546665,0.886365,-0.036101,0.559637,0.868602,-0.033763,1,1,0.6
990,'2026/05/06 10:41:02:935',5,0.642453,0.786167,0,0.614413,0.724997,-0.007319,0.575996,0.672133,-0.016454,0.563964,0.617244,-0.02631,0.564175,0.573029,-0.037352,0.502054,0.717574,-0.017713,0.48896,0.785307,-0.030737,0.510329,0.790433,-0.042853,0.524911,0.774786,-0.05175,0.502511,0.763622,-0.02338,0.492741,0.831593,-0.030799,0.514638,0.830367,-0.035778,0.53059,0.810787,-0.042061,0.515121,0.808524,-0.029186,0.506921,0.86468,-0.036879,0.526738,0.860246,-0.036058,0.540915,0.840316,-0.037261,0.532189,0.847977,-0.036297,0.530135,0.890113,-0.043133,0.548764,0.8846,-0.040319,0.56135,0.865617,-0.03753,1,1,0.6
991,'2026/05/06 10:41:02:982',5,0.642382,0.785019,0,0.614349,0.723849,-0.006504,0.576207,0.670884,-0.014762,0.563205,0.616308,-0.023838,0.563207,0.572522,-0.034161,0.502008,0.716914,-0.01633,0.488863,0.787316,-0.028435,0.51085,0.793249,-0.039779,0.525821,0.778094,-0.048113,0.50188,0.7614,-0.022063,0.493094,0.832993,-0.02852,0.515567,0.83189,-0.033165,0.531675,0.811968,-0.039341,0.513959,0.805827,-0.027857,0.506764,0.865235,-0.034954,0.527195,0.860674,-0.03431,0.541715,0.840444,-0.03578,0.530539,0.846151,-0.03489,0.529566,0.891016,-0.041903,0.54872,0.885431,-0.039498,0.561235,0.866347,-0.036963,1,1,0.6
992,'2026/05/06 10:41:03:030',5,0.644137,0.785987,0,0.616026,0.724351,-0.006012,0.57618,0.670914,-0.013777,0.56141,0.617328,-0.022188,0.562021,0.573585,-0.031665,0.501301,0.716442,-0.016803,0.487796,0.785764,-0.02867,0.510216,0.790734,-0.039573,0.525434,0.774432,-0.047713,0.501296,0.76111,-0.02263,0.491817,0.832299,-0.028876,0.514817,0.830856,-0.032909,0.530844,0.810483,-0.038658,0.513554,0.805536,-0.028378,0.506022,0.865089,-0.035088,0.526908,0.859872,-0.033881,0.540931,0.839024,-0.035131,0.530445,0.845365,-0.035311,0.529636,0.890696,-0.041912,0.549262,0.884657,-0.039096,0.561511,0.864961,-0.036376,1,1,0.6
993,'2026/05/06 10:41:03:072',5,0.645305,0.790413,0,0.616749,0.726472,-0.00546,0.577128,0.671112,-0.013132,0.562894,0.616412,-0.021843,0.564518,0.570551,-0.031769,0.502674,0.713874,-0.015181,0.487416,0.780793,-0.026708,0.509014,0.788552,-0.037544,0.524267,0.774955,-0.045677,0.502196,0.758748,-0.021451,0.490207,0.828942,-0.028131,0.513069,0.829043,-0.032604,0.53005,0.809989,-0.038642,0.513639,0.804185,-0.027675,0.502544,0.86279,-0.035173,0.52395,0.858911,-0.034215,0.540098,0.839283,-0.035376,0.529652,0.845324,-0.034997,0.525185,0.891145,-0.041911,0.54456,0.886555,-0.039031,0.558553,0.868168,-0.036208,1,1,0.6
994,'2026/05/06 10:41:03:109',5,0.644712,0.787732,0,0.615284,0.723752,-0.003784,0.574792,0.670647,-0.01009,0.560109,0.616011,-0.017632,0.562695,0.571915,-0.026476,0.500795,0.716386,-0.0122,0.487674,0.784888,-0.022792,0.509234,0.791048,-0.033706,0.52342,0.776314,-0.042017,0.501255,0.761938,-0.018704,0.490851,0.832066,-0.024207,0.513122,0.830782,-0.028687,0.528957,0.810994,-0.034846,0.513481,0.806778,-0.025073,0.504645,0.865245,-0.031283,0.525321,0.860155,-0.030612,0.539915,0.840365,-0.032155,0.530425,0.846908,-0.032446,0.527367,0.891573,-0.038261,0.546292,0.885534,-0.035399,0.559142,0.866208,-0.032762,1,1,0.6
995,'2026/05/06 10:41:03:149',5,0.644306,0.787922,0,0.615525,0.724635,-0.003753,0.57501,0.671489,-0.010228,0.560437,0.617168,-0.017955,0.562513,0.573526,-0.027361,0.500893,0.716294,-0.014067,0.485925,0.782168,-0.02409,0.506494,0.789889,-0.034379,0.521465,0.777643,-0.042349,0.500768,0.761366,-0.020484,0.489517,0.82971,-0.025241,0.510865,0.830309,-0.029378,0.527635,0.812757,-0.035471,0.513224,0.806144,-0.026548,0.503405,0.863189,-0.032059,0.522798,0.860241,-0.031501,0.538029,0.842688,-0.033333,0.530568,0.846807,-0.033549,0.527009,0.890998,-0.039389,0.544778,0.886422,-0.036932,0.557408,0.868984,-0.034612,1,1,0.6
996,'2026/05/06 10:41:03:196',5,0.643514,0.786571,0,0.614776,0.723694,-0.004465,0.575408,0.670624,-0.011412,0.560417,0.616312,-0.019382,0.561736,0.57134,-0.028827,0.501173,0.715147,-0.014746,0.488219,0.783611,-0.024981,0.50948,0.791094,-0.035102,0.524246,0.777918,-0.042843,0.501163,0.760354,-0.02086,0.491438,0.830694,-0.025879,0.513337,0.831078,-0.029797,0.529786,0.812634,-0.035669,0.513104,0.8054,-0.026679,0.504599,0.863774,-0.032579,0.524979,0.859803,-0.031625,0.540125,0.840729,-0.033084,0.529718,0.846545,-0.033494,0.526944,0.891281,-0.039375,0.545881,0.886052,-0.036435,0.55895,0.867843,-0.033725,1,1,0.6
997,'2026/05/06 10:41:03:232',5,0.642055,0.784244,0,0.611937,0.720773,-0.004184,0.573574,0.669238,-0.011958,0.559671,0.61489,-0.020903,0.560968,0.570433,-0.031265,0.500805,0.718694,-0.015237,0.486529,0.78659,-0.025795,0.507703,0.792427,-0.035881,0.522144,0.77862,-0.043525,0.502066,0.764533,-0.021688,0.490357,0.832995,-0.027067,0.511809,0.832039,-0.030731,0.527952,0.813059,-0.036291,0.515042,0.808538,-0.02781,0.50433,0.865539,-0.033721,0.523713,0.860998,-0.032524,0.53839,0.842049,-0.033754,0.532349,0.847496,-0.034878,0.527418,0.891516,-0.040322,0.5452,0.885874,-0.03703,0.557828,0.867454,-0.034139,1,1,0.6
998,'2026/05/06 10:41:03:263',5,0.641673,0.785186,0,0.613348,0.724129,-0.007379,0.574929,0.671701,-0.016447,0.561742,0.616988,-0.026077,0.562213,0.572893,-0.036901,0.500624,0.71776,-0.017956,0.486789,0.785436,-0.030707,0.508523,0.790777,-0.042497,0.523429,0.775695,-0.051151,0.500429,0.763352,-0.023319,0.490138,0.831149,-0.030487,0.512288,0.829824,-0.035117,0.528538,0.810333,-0.041119,0.512458,0.807954,-0.028753,0.504162,0.863682,-0.036352,0.52402,0.859475,-0.035417,0.538488,0.840181,-0.036507,0.52909,0.84768,-0.035447,0.527014,0.889864,-0.04267,0.54558,0.884834,-0.039978,0.557924,0.866434,-0.037118,1,1,0.6
999,'2026/05/06 10:41:03:293',5,0.645455,0.787775,0,0.615666,0.723788,-0.003641,0.57489,0.671084,-0.010288,0.559574,0.61752,-0.018138,0.561692,0.573534,-0.027427,0.500603,0.715553,-0.014115,0.485597,0.784153,-0.023749,0.507743,0.791936,-0.033281,0.523238,0.779043,-0.040707,0.499889,0.760314,-0.020607,0.490006,0.83129,-0.025407,0.512743,0.830993,-0.029288,0.529536,0.812162,-0.035088,0.51159,0.805041,-0.026661,0.503311,0.86361,-0.03194,0.524038,0.85927,-0.031114,0.539128,0.840163,-0.032863,0.528179,0.845776,-0.033668,0.526308,0.890157,-0.03963,0.545871,0.884662,-0.03707,0.55904,0.866355,-0.034557,1,1,0.6
1000,'2026/05/06 10:41:03:331',5,0.644278,0.785297,0,0.614029,0.722251,-0.003443,0.574462,0.670535,-0.009764,0.559934,0.615886,-0.017452,0.560249,0.571977,-0.026741,0.500503,0.715451,-0.010999,0.486673,0.782811,-0.0202,0.508412,0.791363,-0.03068,0.523494,0.779196,-0.038899,0.500066,0.7604,-0.017364,0.48941,0.829662,-0.021184,0.511755,0.830921,-0.025825,0.528631,0.813365,-0.032401,0.511985,0.805366,-0.023459,0.502919,0.863345,-0.028247,0.523311,0.860573,-0.028097,0.539025,0.842949,-0.030317,0.528883,0.846018,-0.030504,0.525288,0.89054,-0.035753,0.544011,0.885924,-0.033064,0.557335,0.868325,-0.030621,1,1,0.6
1001,'2026/05/06 10:41:03:355',5,0.644169,0.78708,0,0.61485,0.724933,-0.00485,0.575027,0.671714,-0.012626,0.559994,0.617407,-0.021352,0.562037,0.572423,-0.031558,0.5001,0.714094,-0.015972,0.486549,0.781234,-0.026833,0.507917,0.790299,-0.03752,0.522714,0.778091,-0.045778,0.499644,0.759382,-0.022226,0.489505,0.829459,-0.027805,0.51188,0.831283,-0.031975,0.528593,0.81394,-0.038066,0.511585,0.804446,-0.028129,0.502296,0.863241,-0.034382,0.522497,0.86081,-0.033461,0.537724,0.842884,-0.034992,0.528223,0.844876,-0.035033,0.52471,0.890799,-0.041381,0.543148,0.887038,-0.03849,0.556004,0.869528,-0.035747,1,1,0.6
1002,'2026/05/06 10:41:03:387',5,0.644169,0.78708,0,0.61485,0.724933,-0.00485,0.575027,0.671714,-0.012626,0.559994,0.617407,-0.021352,0.562037,0.572423,-0.031558,0.5001,0.714094,-0.015972,0.486549,0.781234,-0.026833,0.507917,0.790299,-0.03752,0.522714,0.778091,-0.045778,0.499644,0.759382,-0.022226,0.489505,0.829459,-0.027805,0.51188,0.831283,-0.031975,0.528593,0.81394,-0.038066,0.511585,0.804446,-0.028129,0.502296,0.863241,-0.034382,0.522497,0.86081,-0.033461,0.537724,0.842884,-0.034992,0.528223,0.844876,-0.035033,0.52471,0.890799,-0.041381,0.543148,0.887038,-0.03849,0.556004,0.869528,-0.035747,1,1,0.6
1003,'2026/05/06 10:41:03:418',5,0.640704,0.784469,0,0.612387,0.723771,-0.007634,0.574033,0.671579,-0.016668,0.560387,0.616974,-0.026383,0.559949,0.571925,-0.0373,0.498845,0.716971,-0.017008,0.486816,0.787927,-0.030047,0.509193,0.793943,-0.04239,0.524112,0.778972,-0.051394,0.498627,0.761389,-0.022386,0.490604,0.833009,-0.029601,0.513516,0.832725,-0.03473,0.529465,0.813163,-0.041156,0.510922,0.805382,-0.027982,0.504448,0.864752,-0.035904,0.525178,0.860654,-0.035397,0.539661,0.840358,-0.036763,0.527927,0.844942,-0.034912,0.527302,0.890413,-0.042506,0.546501,0.885485,-0.040194,0.558963,0.866744,-0.037573,1,1,0.6
1004,'2026/05/06 10:41:03:463',5,0.644603,0.789911,0,0.615187,0.726713,-0.004341,0.574499,0.672384,-0.011324,0.559906,0.61797,-0.019416,0.561887,0.572672,-0.028894,0.50106,0.715698,-0.014367,0.486486,0.782482,-0.025161,0.508378,0.790045,-0.035676,0.52387,0.77629,-0.043737,0.500488,0.760537,-0.020791,0.489711,0.830091,-0.026242,0.512403,0.830496,-0.030384,0.52929,0.811449,-0.036438,0.512043,0.805703,-0.027013,0.502327,0.863786,-0.033249,0.52334,0.860299,-0.032301,0.538768,0.840813,-0.033852,0.528298,0.84659,-0.03425,0.525389,0.892042,-0.040474,0.544808,0.887377,-0.03767,0.558009,0.868783,-0.035114,1,1,0.6
1005,'2026/05/06 10:41:03:514',5,0.644516,0.789805,0,0.615184,0.726817,-0.004047,0.574413,0.672346,-0.010733,0.559287,0.617875,-0.018531,0.561264,0.572673,-0.027607,0.500606,0.715486,-0.013369,0.485888,0.782865,-0.023498,0.507666,0.791226,-0.033629,0.522875,0.77743,-0.041548,0.500474,0.760289,-0.019912,0.489525,0.830997,-0.024946,0.512008,0.831551,-0.029067,0.528686,0.812274,-0.035168,0.512253,0.805285,-0.026234,0.502834,0.86468,-0.031919,0.523582,0.861283,-0.030997,0.538764,0.841739,-0.032696,0.528639,0.845716,-0.033599,0.52595,0.892165,-0.039358,0.545018,0.887902,-0.036583,0.5579,0.869417,-0.034135,1,1,0.6
1006,'2026/05/06 10:41:03:541',5,0.644929,0.787832,0,0.615304,0.724101,-0.005136,0.573557,0.672125,-0.012528,0.558166,0.618243,-0.020976,0.559367,0.573753,-0.030848,0.500803,0.717903,-0.015026,0.48654,0.786784,-0.026582,0.507135,0.793668,-0.037711,0.521303,0.780032,-0.046023,0.501364,0.763252,-0.021236,0.49033,0.83346,-0.027866,0.51194,0.833508,-0.032502,0.528237,0.81474,-0.038486,0.514063,0.807934,-0.027346,0.5036,0.865753,-0.034794,0.523241,0.862269,-0.034047,0.538324,0.843356,-0.035168,0.531594,0.847996,-0.034499,0.526708,0.892338,-0.041527,0.544701,0.887646,-0.038803,0.557595,0.869462,-0.035915,1,1,0.6
1007,'2026/05/06 10:41:03:574',5,0.643234,0.786596,0,0.61454,0.723962,-0.005196,0.574615,0.67226,-0.012884,0.559112,0.618577,-0.021608,0.560276,0.573367,-0.031897,0.500739,0.715371,-0.015517,0.487585,0.782108,-0.026406,0.508291,0.791119,-0.037221,0.52312,0.77946,-0.045483,0.500149,0.76125,-0.021586,0.490305,0.829613,-0.027359,0.511555,0.831912,-0.031997,0.528163,0.815441,-0.038287,0.511817,0.806887,-0.027385,0.502902,0.863468,-0.033995,0.522453,0.862171,-0.033535,0.538152,0.845497,-0.035178,0.528222,0.847886,-0.034226,0.525581,0.892485,-0.040867,0.543569,0.889317,-0.038443,0.556564,0.87281,-0.035926,1,1,0.6
1008,'2026/05/06 10:41:03:608',5,0.645077,0.792594,0,0.616287,0.7285,-0.005498,0.576141,0.670783,-0.012444,0.55995,0.616609,-0.020081,0.560101,0.57144,-0.028704,0.499567,0.713874,-0.01588,0.486596,0.783175,-0.026741,0.509348,0.790804,-0.036792,0.524924,0.776216,-0.044471,0.498998,0.758366,-0.02178,0.490077,0.832296,-0.027467,0.514048,0.832644,-0.031606,0.530274,0.812966,-0.037793,0.510543,0.803325,-0.027469,0.502093,0.866345,-0.034522,0.524355,0.861305,-0.033692,0.539908,0.840181,-0.03523,0.526665,0.84388,-0.034224,0.523856,0.893412,-0.041202,0.543841,0.888675,-0.038462,0.557504,0.869473,-0.035813,1,1,0.6
1009,'2026/05/06 10:41:03:636',5,0.644331,0.785871,0,0.614189,0.72438,-0.005079,0.57406,0.671787,-0.012636,0.558514,0.618277,-0.02122,0.559732,0.57364,-0.03109,0.499364,0.717114,-0.015273,0.487388,0.785705,-0.026926,0.509148,0.792179,-0.037769,0.5236,0.777714,-0.045913,0.499665,0.761617,-0.021732,0.490576,0.833555,-0.028523,0.513404,0.833417,-0.032809,0.529424,0.813845,-0.03861,0.512296,0.805869,-0.0281,0.503489,0.866691,-0.035572,0.524711,0.862582,-0.034437,0.5395,0.842415,-0.035484,0.529659,0.846055,-0.03555,0.526248,0.893353,-0.042705,0.545873,0.887421,-0.039964,0.558861,0.867562,-0.037186,1,1,0.6
1010,'2026/05/06 10:41:03:667',5,0.64209,0.788708,0,0.613129,0.725252,-0.004887,0.573528,0.673557,-0.012134,0.558855,0.619409,-0.020465,0.560369,0.57462,-0.030326,0.499532,0.718322,-0.014278,0.487421,0.784648,-0.024732,0.507828,0.792444,-0.035806,0.521767,0.780015,-0.04449,0.499787,0.763945,-0.020438,0.490235,0.831226,-0.025888,0.511419,0.832075,-0.030972,0.527596,0.814617,-0.03773,0.512229,0.808618,-0.026336,0.50386,0.865214,-0.032527,0.52325,0.861884,-0.03239,0.538193,0.843515,-0.034416,0.529267,0.848437,-0.033266,0.526083,0.892923,-0.039415,0.543493,0.888241,-0.036884,0.556073,0.870131,-0.034511,1,1,0.6
1011,'2026/05/06 10:41:03:697',5,0.642352,0.788498,0,0.613934,0.725727,-0.006993,0.574646,0.673585,-0.016298,0.560202,0.618882,-0.026369,0.560481,0.573499,-0.037886,0.500036,0.717432,-0.019503,0.48682,0.786215,-0.031191,0.507272,0.794877,-0.042156,0.521159,0.782833,-0.050656,0.500241,0.763606,-0.02524,0.490593,0.8328,-0.032005,0.511599,0.834449,-0.036841,0.527476,0.817204,-0.043613,0.512202,0.809182,-0.030673,0.504326,0.86682,-0.037551,0.523545,0.864603,-0.036593,0.538727,0.846757,-0.038337,0.528347,0.850039,-0.037385,0.526942,0.895095,-0.044267,0.544857,0.891667,-0.041702,0.557762,0.874419,-0.039343,1,1,0.6
1012,'2026/05/06 10:41:03:736',5,0.643149,0.787454,0,0.613782,0.726061,-0.005063,0.573521,0.673954,-0.01285,0.558672,0.619038,-0.021633,0.559882,0.574633,-0.031735,0.500245,0.719002,-0.016315,0.486317,0.786628,-0.027298,0.507552,0.792797,-0.037589,0.52191,0.778635,-0.045443,0.500509,0.763533,-0.022702,0.490219,0.83399,-0.028677,0.512352,0.833158,-0.03269,0.528221,0.813609,-0.038554,0.512803,0.807572,-0.028847,0.504298,0.866958,-0.035072,0.524504,0.862586,-0.033863,0.539048,0.842751,-0.035242,0.5298,0.847448,-0.036111,0.526271,0.893771,-0.04223,0.544514,0.888794,-0.03937,0.55697,0.86995,-0.036782,1,1,0.6
1013,'2026/05/06 10:41:03:785',5,0.643344,0.788909,0,0.613059,0.725513,-0.004494,0.573717,0.672247,-0.011299,0.558265,0.618296,-0.01928,0.559339,0.574139,-0.028629,0.499538,0.717498,-0.012964,0.486213,0.786878,-0.023425,0.508059,0.795502,-0.034111,0.522773,0.782376,-0.042345,0.499424,0.761157,-0.019154,0.489963,0.835006,-0.024534,0.512813,0.83581,-0.029236,0.528763,0.816716,-0.035768,0.511211,0.805233,-0.025185,0.502811,0.86779,-0.031449,0.524066,0.863947,-0.031152,0.53923,0.844442,-0.03314,0.527656,0.845355,-0.032278,0.525711,0.894059,-0.038534,0.544997,0.889565,-0.036087,0.557755,0.871269,-0.033772,1,1,0.6
1014,'2026/05/06 10:41:03:826',5,0.643344,0.788909,0,0.613059,0.725513,-0.004494,0.573717,0.672247,-0.011299,0.558265,0.618296,-0.01928,0.559339,0.574139,-0.028629,0.499538,0.717498,-0.012964,0.486213,0.786878,-0.023425,0.508059,0.795502,-0.034111,0.522773,0.782376,-0.042345,0.499424,0.761157,-0.019154,0.489963,0.835006,-0.024534,0.512813,0.83581,-0.029236,0.528763,0.816716,-0.035768,0.511211,0.805233,-0.025185,0.502811,0.86779,-0.031449,0.524066,0.863947,-0.031152,0.53923,0.844442,-0.03314,0.527656,0.845355,-0.032278,0.525711,0.894059,-0.038534,0.544997,0.889565,-0.036087,0.557755,0.871269,-0.033772,1,1,0.6
1015,'2026/05/06 10:41:03:870',5,0.644226,0.78829,0,0.613619,0.724539,-0.003791,0.573777,0.67255,-0.010615,0.558484,0.61822,-0.018681,0.55986,0.573038,-0.028125,0.499398,0.717728,-0.013205,0.486071,0.785556,-0.023524,0.507293,0.791712,-0.033864,0.521636,0.777663,-0.041783,0.49988,0.763316,-0.019705,0.489292,0.83289,-0.024961,0.511126,0.832627,-0.029143,0.527164,0.813407,-0.03515,0.512538,0.808421,-0.025948,0.503106,0.86611,-0.032024,0.523198,0.861818,-0.031255,0.538139,0.842468,-0.032779,0.529975,0.84905,-0.033137,0.526982,0.893119,-0.039069,0.545738,0.887226,-0.036288,0.558695,0.868242,-0.033669,1,1,0.6
1016,'2026/05/06 10:41:03:911',5,0.64355,0.787759,0,0.613072,0.725116,-0.004638,0.571919,0.672699,-0.011941,0.557085,0.619145,-0.02037,0.55886,0.574403,-0.030173,0.497977,0.718583,-0.013994,0.485458,0.785162,-0.024733,0.507573,0.792455,-0.03557,0.522524,0.778347,-0.043938,0.498663,0.764085,-0.020409,0.489434,0.832384,-0.025898,0.512129,0.832969,-0.030369,0.528585,0.814595,-0.036586,0.511395,0.808786,-0.02661,0.50238,0.866158,-0.032646,0.522886,0.863038,-0.031679,0.538023,0.844524,-0.033134,0.528492,0.848442,-0.033875,0.524961,0.893058,-0.040029,0.543545,0.888744,-0.036943,0.556326,0.870941,-0.034018,1,1,0.6
1017,'2026/05/06 10:41:03:951',5,0.64085,0.786109,0,0.611217,0.725326,-0.005954,0.571057,0.674236,-0.014318,0.556288,0.620631,-0.023702,0.557221,0.576207,-0.03443,0.49746,0.719911,-0.016254,0.484501,0.788539,-0.0281,0.506116,0.795831,-0.039334,0.520466,0.781894,-0.047846,0.497996,0.764534,-0.022458,0.489126,0.835972,-0.029184,0.511746,0.836229,-0.033867,0.527658,0.817179,-0.040142,0.510456,0.808883,-0.028589,0.502873,0.869044,-0.035654,0.523515,0.865524,-0.034724,0.538192,0.846258,-0.036177,0.527254,0.848662,-0.035934,0.525725,0.895805,-0.043079,0.544602,0.891228,-0.040606,0.557022,0.872801,-0.0381,1,1,0.6
1018,'2026/05/06 10:41:03:992',5,0.644342,0.787757,0,0.612492,0.725097,-0.00475,0.571902,0.674874,-0.012753,0.556169,0.620258,-0.02196,0.556505,0.574497,-0.032488,0.498039,0.720406,-0.014211,0.484612,0.792295,-0.024755,0.506426,0.799819,-0.035222,0.520754,0.786239,-0.043326,0.499114,0.765069,-0.020602,0.4893,0.838472,-0.026444,0.511868,0.838467,-0.031118,0.527921,0.819186,-0.037558,0.511803,0.809493,-0.026725,0.503572,0.870745,-0.032727,0.523928,0.866792,-0.031747,0.538587,0.847412,-0.033393,0.528869,0.849712,-0.033971,0.526542,0.896078,-0.039925,0.545132,0.89087,-0.036987,0.557499,0.872063,-0.034335,1,1,0.6
1019,'2026/05/06 10:41:04:041',5,0.638627,0.7839,0,0.609316,0.721183,-0.007313,0.570716,0.671513,-0.016622,0.555997,0.617626,-0.026852,0.555444,0.572862,-0.038432,0.497562,0.72189,-0.017293,0.486349,0.790633,-0.02983,0.507206,0.795956,-0.041618,0.520733,0.781637,-0.050431,0.499374,0.768745,-0.022986,0.490064,0.837406,-0.030985,0.511405,0.837066,-0.036335,0.526941,0.818284,-0.042909,0.512333,0.814027,-0.028707,0.503688,0.870612,-0.037145,0.523352,0.866709,-0.036267,0.53788,0.847217,-0.037397,0.529102,0.854109,-0.035682,0.526579,0.897165,-0.043082,0.545345,0.891446,-0.040103,0.558162,0.872005,-0.037243,1,1,0.6
1020,'2026/05/06 10:41:04:088',5,0.638301,0.7851,0,0.609499,0.722994,-0.007475,0.571534,0.672306,-0.016378,0.556899,0.617713,-0.025987,0.55574,0.572399,-0.037035,0.496579,0.720775,-0.016913,0.486332,0.788634,-0.028287,0.507131,0.796136,-0.039937,0.520783,0.783964,-0.048876,0.497673,0.767246,-0.022001,0.489637,0.834874,-0.028436,0.51075,0.83628,-0.034087,0.526651,0.819544,-0.041264,0.510467,0.812084,-0.026983,0.503212,0.868387,-0.034261,0.52263,0.865976,-0.03436,0.537736,0.848592,-0.036432,0.527258,0.851587,-0.033195,0.526101,0.895828,-0.040192,0.544029,0.891579,-0.038002,0.55682,0.873815,-0.035793,1,1,0.6
1021,'2026/05/06 10:41:04:133',5,0.642722,0.786962,0,0.612006,0.72528,-0.004835,0.571654,0.673369,-0.012707,0.556013,0.618975,-0.021734,0.556518,0.573746,-0.032285,0.498497,0.719066,-0.015098,0.48593,0.78514,-0.026019,0.507121,0.793492,-0.03705,0.521748,0.781574,-0.045544,0.498998,0.764487,-0.021434,0.488693,0.83255,-0.027435,0.51074,0.833986,-0.032065,0.52754,0.817172,-0.038383,0.511518,0.809188,-0.027487,0.502032,0.866815,-0.034047,0.522395,0.86454,-0.033188,0.538328,0.847173,-0.034663,0.528554,0.849284,-0.034569,0.524876,0.895251,-0.040999,0.543223,0.89102,-0.038192,0.556585,0.873431,-0.035527,1,1,0.6
1022,'2026/05/06 10:41:04:165',5,0.643331,0.787569,0,0.612077,0.726222,-0.00571,0.571875,0.673704,-0.014348,0.556476,0.618242,-0.02398,0.556685,0.572239,-0.034699,0.497435,0.718977,-0.015788,0.483712,0.788564,-0.027428,0.505948,0.794732,-0.038259,0.519916,0.779652,-0.046406,0.498491,0.763605,-0.02192,0.488388,0.83631,-0.028632,0.511416,0.83517,-0.032986,0.527027,0.814937,-0.039044,0.511,0.807785,-0.027982,0.501708,0.868585,-0.034965,0.522601,0.863832,-0.033825,0.53728,0.843689,-0.035095,0.527723,0.847125,-0.035222,0.525131,0.894367,-0.041568,0.544158,0.889039,-0.038711,0.556882,0.870007,-0.036026,1,1,0.6
1023,'2026/05/06 10:41:04:194',5,0.643331,0.787569,0,0.612077,0.726222,-0.00571,0.571875,0.673704,-0.014348,0.556476,0.618242,-0.02398,0.556685,0.572239,-0.034699,0.497435,0.718977,-0.015788,0.483712,0.788564,-0.027428,0.505948,0.794732,-0.038259,0.519916,0.779652,-0.046406,0.498491,0.763605,-0.02192,0.488388,0.83631,-0.028632,0.511416,0.83517,-0.032986,0.527027,0.814937,-0.039044,0.511,0.807785,-0.027982,0.501708,0.868585,-0.034965,0.522601,0.863832,-0.033825,0.53728,0.843689,-0.035095,0.527723,0.847125,-0.035222,0.525131,0.894367,-0.041568,0.544158,0.889039,-0.038711,0.556882,0.870007,-0.036026,1,1,0.6
1024,'2026/05/06 10:41:04:227',5,0.64283,0.787133,0,0.612151,0.726674,-0.004999,0.572055,0.673755,-0.01302,0.556051,0.618713,-0.022161,0.556262,0.573274,-0.032701,0.496935,0.719128,-0.014985,0.483738,0.787736,-0.02539,0.50566,0.796514,-0.035752,0.520105,0.783663,-0.043877,0.497847,0.763572,-0.021256,0.488321,0.836293,-0.026885,0.511618,0.837375,-0.031374,0.527909,0.818922,-0.037832,0.510705,0.807836,-0.027193,0.500814,0.869607,-0.033566,0.52213,0.866716,-0.032627,0.537917,0.848088,-0.034237,0.527699,0.847711,-0.034178,0.523894,0.896195,-0.040652,0.542825,0.891781,-0.03782,0.556114,0.873319,-0.035177,1,1,0.6
1025,'2026/05/06 10:41:04:259',5,0.639909,0.785794,0,0.609921,0.725582,-0.005017,0.569871,0.675101,-0.01275,0.554381,0.621768,-0.021762,0.554613,0.576567,-0.032478,0.497515,0.719503,-0.013484,0.484939,0.787071,-0.024207,0.506046,0.797782,-0.035415,0.520702,0.786625,-0.044105,0.497946,0.764461,-0.019624,0.488462,0.833077,-0.025266,0.510102,0.837471,-0.030551,0.526809,0.822187,-0.037459,0.5102,0.808864,-0.025577,0.500421,0.866297,-0.03221,0.520021,0.867211,-0.031902,0.536034,0.852032,-0.03373,0.526742,0.848452,-0.032555,0.522537,0.894202,-0.039241,0.540132,0.892892,-0.036656,0.55312,0.87752,-0.034102,1,1,0.6
1026,'2026/05/06 10:41:04:296',5,0.642035,0.787203,0,0.611448,0.727505,-0.005399,0.570367,0.67547,-0.013297,0.555054,0.62125,-0.022209,0.5552,0.576018,-0.032524,0.496557,0.719534,-0.014603,0.483648,0.786613,-0.025902,0.50517,0.79599,-0.037363,0.519737,0.783345,-0.046153,0.496257,0.763563,-0.020683,0.488029,0.834955,-0.026607,0.510384,0.836764,-0.031747,0.526635,0.818528,-0.038494,0.508186,0.807904,-0.026602,0.500952,0.868305,-0.033114,0.521434,0.865704,-0.032528,0.536654,0.846906,-0.034272,0.524848,0.847819,-0.033659,0.52313,0.895884,-0.040528,0.541849,0.891829,-0.037945,0.554761,0.873522,-0.035278,1,1,0.6
1027,'2026/05/06 10:41:04:321',5,0.640286,0.786497,0,0.61053,0.726065,-0.005942,0.56987,0.675237,-0.013847,0.554154,0.622093,-0.022554,0.554874,0.57752,-0.032604,0.49608,0.721518,-0.015864,0.483864,0.787536,-0.026351,0.505805,0.796284,-0.036614,0.52057,0.784011,-0.044677,0.496781,0.766474,-0.0214,0.488368,0.834526,-0.027016,0.510853,0.836583,-0.031496,0.527093,0.819742,-0.037785,0.509393,0.810362,-0.02667,0.501348,0.867652,-0.033282,0.521756,0.865957,-0.032529,0.537226,0.849139,-0.03405,0.52613,0.849289,-0.033024,0.523579,0.89457,-0.039798,0.54196,0.891011,-0.037161,0.555005,0.874022,-0.034494,1,1,0.6
1028,'2026/05/06 10:41:04:354',5,0.641044,0.786183,0,0.610328,0.725404,-0.005409,0.570265,0.67299,-0.013387,0.554724,0.6192,-0.022363,0.553937,0.574821,-0.032666,0.497067,0.719949,-0.015087,0.484086,0.788682,-0.026127,0.50597,0.79702,-0.036923,0.52041,0.783172,-0.045284,0.498154,0.764367,-0.021303,0.488639,0.835486,-0.027387,0.51105,0.836922,-0.032152,0.527216,0.818505,-0.038619,0.510784,0.808425,-0.027334,0.501291,0.868461,-0.034149,0.521702,0.866772,-0.033134,0.536958,0.848913,-0.034511,0.527572,0.847875,-0.034473,0.52455,0.895099,-0.041259,0.543033,0.891626,-0.038377,0.555647,0.8738,-0.035593,1,1,0.6
1029,'2026/05/06 10:41:04:389',5,0.640681,0.786576,0,0.610854,0.725674,-0.005699,0.571026,0.673531,-0.013746,0.555547,0.619479,-0.022819,0.554757,0.574453,-0.033191,0.49783,0.719232,-0.015068,0.484351,0.785843,-0.026478,0.505467,0.793778,-0.037604,0.519719,0.780436,-0.046067,0.498315,0.764092,-0.021087,0.488182,0.833348,-0.027583,0.510318,0.834426,-0.032484,0.526582,0.815908,-0.038938,0.510587,0.808725,-0.027006,0.501172,0.866981,-0.034424,0.521529,0.864422,-0.033586,0.537171,0.845918,-0.034885,0.527223,0.848805,-0.034025,0.523923,0.894572,-0.041062,0.542107,0.890314,-0.038292,0.555176,0.872129,-0.035546,1,1,0.6
1030,'2026/05/06 10:41:04:419',5,0.642399,0.788903,0,0.612014,0.727235,-0.004265,0.570446,0.672957,-0.011393,0.55462,0.619506,-0.019588,0.556426,0.574887,-0.029168,0.497852,0.717466,-0.015312,0.482371,0.779723,-0.02542,0.503634,0.788611,-0.035078,0.519016,0.776524,-0.042807,0.497821,0.762747,-0.021682,0.486551,0.829068,-0.026995,0.508714,0.831393,-0.030742,0.52562,0.814228,-0.036564,0.509892,0.807992,-0.027642,0.499654,0.864812,-0.033806,0.519711,0.863317,-0.032472,0.535616,0.845723,-0.033798,0.526036,0.848465,-0.034554,0.52251,0.894336,-0.04125,0.540891,0.890828,-0.038557,0.554213,0.872835,-0.035965,1,1,0.6
1031,'2026/05/06 10:41:04:446',5,0.637377,0.784195,0,0.607712,0.721407,-0.005776,0.568859,0.671255,-0.013395,0.553267,0.61906,-0.021991,0.553533,0.574765,-0.032024,0.497015,0.720368,-0.014897,0.485288,0.786069,-0.025722,0.505842,0.793175,-0.036395,0.519778,0.780359,-0.044571,0.498028,0.765916,-0.020595,0.488578,0.832542,-0.026916,0.50941,0.833486,-0.031809,0.525392,0.816066,-0.03809,0.51084,0.810075,-0.026129,0.501263,0.865676,-0.033537,0.520694,0.863471,-0.033152,0.535803,0.845813,-0.03457,0.528068,0.849108,-0.032699,0.52426,0.892577,-0.039761,0.541753,0.888829,-0.037199,0.554396,0.871433,-0.034531,1,1,0.6
1032,'2026/05/06 10:41:04:477',5,0.639231,0.784944,0,0.609832,0.723162,-0.005749,0.56952,0.67342,-0.013443,0.553706,0.620893,-0.02209,0.553866,0.576641,-0.032165,0.496758,0.720957,-0.014602,0.485058,0.786258,-0.024817,0.506193,0.794493,-0.03531,0.520487,0.782422,-0.043554,0.497102,0.765931,-0.020207,0.488653,0.831816,-0.025643,0.510132,0.833827,-0.030562,0.526204,0.817374,-0.0371,0.509359,0.81023,-0.025556,0.501585,0.865487,-0.031836,0.521514,0.864104,-0.031326,0.536731,0.847153,-0.033065,0.525835,0.84995,-0.032009,0.524467,0.893452,-0.038543,0.542683,0.890196,-0.035928,0.555251,0.873279,-0.033353,1,1,0.6
1033,'2026/05/06 10:41:04:510',5,0.640653,0.78501,0,0.61096,0.724288,-0.004933,0.569661,0.673319,-0.0121,0.553083,0.620598,-0.020164,0.553756,0.576461,-0.029521,0.496408,0.719099,-0.014947,0.484477,0.785163,-0.025004,0.505625,0.79301,-0.034769,0.519823,0.780236,-0.042452,0.496665,0.763525,-0.020994,0.488185,0.833139,-0.026501,0.510086,0.834278,-0.030541,0.526144,0.815937,-0.036346,0.509233,0.80773,-0.026761,0.501035,0.866459,-0.0333,0.521045,0.863643,-0.032423,0.535791,0.84463,-0.033818,0.526359,0.847385,-0.033526,0.522942,0.893145,-0.040462,0.541108,0.888781,-0.038024,0.553513,0.870384,-0.035472,1,1,0.6
1034,'2026/05/06 10:41:04:541',5,0.640363,0.785895,0,0.610161,0.725345,-0.005368,0.568958,0.674391,-0.013352,0.553304,0.621605,-0.02229,0.553868,0.577081,-0.032441,0.494743,0.720852,-0.014971,0.481609,0.787162,-0.025933,0.504031,0.794988,-0.036695,0.519025,0.781283,-0.045114,0.495591,0.765403,-0.020975,0.486389,0.833619,-0.027058,0.50953,0.834946,-0.031521,0.525926,0.817443,-0.037678,0.508302,0.809067,-0.026789,0.499225,0.86701,-0.033372,0.519803,0.864702,-0.032071,0.534971,0.847183,-0.033238,0.525221,0.847428,-0.033706,0.521793,0.89291,-0.040352,0.540208,0.889346,-0.037328,0.55283,0.872099,-0.034383,1,1,0.6
1035,'2026/05/06 10:41:04:573',5,0.640363,0.785895,0,0.610161,0.725345,-0.005368,0.568958,0.674391,-0.013352,0.553304,0.621605,-0.02229,0.553868,0.577081,-0.032441,0.494743,0.720852,-0.014971,0.481609,0.787162,-0.025933,0.504031,0.794988,-0.036695,0.519025,0.781283,-0.045114,0.495591,0.765403,-0.020975,0.486389,0.833619,-0.027058,0.50953,0.834946,-0.031521,0.525926,0.817443,-0.037678,0.508302,0.809067,-0.026789,0.499225,0.86701,-0.033372,0.519803,0.864702,-0.032071,0.534971,0.847183,-0.033238,0.525221,0.847428,-0.033706,0.521793,0.89291,-0.040352,0.540208,0.889346,-0.037328,0.55283,0.872099,-0.034383,1,1,0.6
1036,'2026/05/06 10:41:04:601',5,0.639653,0.787046,0,0.61021,0.725765,-0.007486,0.568573,0.673253,-0.015639,0.553082,0.620254,-0.024482,0.552315,0.575528,-0.034244,0.495297,0.721425,-0.015169,0.482514,0.789041,-0.028004,0.50562,0.795263,-0.039702,0.520834,0.779172,-0.048332,0.496296,0.765218,-0.020656,0.488335,0.835777,-0.028531,0.511837,0.835437,-0.033936,0.527616,0.815582,-0.040282,0.508801,0.808961,-0.026468,0.501597,0.868439,-0.035293,0.522982,0.864867,-0.034575,0.537618,0.844709,-0.035509,0.525238,0.848121,-0.033606,0.524016,0.895106,-0.042177,0.543691,0.89119,-0.039822,0.556326,0.872364,-0.03691,1,1,0.6
1037,'2026/05/06 10:41:04:631',5,0.637017,0.786691,0,0.608229,0.725223,-0.006854,0.568177,0.672852,-0.014605,0.552734,0.620635,-0.023147,0.550992,0.576782,-0.032719,0.495504,0.72107,-0.014202,0.483768,0.787209,-0.026692,0.505614,0.793061,-0.038682,0.520429,0.777333,-0.047449,0.495982,0.765048,-0.019742,0.488147,0.833675,-0.026873,0.510185,0.83279,-0.032288,0.525805,0.812818,-0.038747,0.508253,0.808853,-0.025561,0.500402,0.866459,-0.033664,0.520691,0.862527,-0.033267,0.535377,0.84236,-0.034525,0.52471,0.847927,-0.032635,0.523275,0.894634,-0.040313,0.54207,0.890155,-0.03793,0.554786,0.871223,-0.035184,1,1,0.6
1038,'2026/05/06 10:41:04:662',5,0.638617,0.786953,0,0.60977,0.726052,-0.005548,0.569772,0.67299,-0.012712,0.553743,0.620221,-0.020811,0.553596,0.576387,-0.030033,0.494472,0.719738,-0.013538,0.483332,0.787766,-0.024956,0.505428,0.796175,-0.036106,0.519971,0.781696,-0.044708,0.494051,0.76276,-0.019634,0.488438,0.83592,-0.02616,0.511538,0.837496,-0.031595,0.52711,0.817973,-0.038382,0.505579,0.806399,-0.025668,0.501581,0.869173,-0.033408,0.52278,0.866584,-0.033086,0.53729,0.846123,-0.034808,0.521294,0.846082,-0.032868,0.523475,0.896948,-0.041157,0.543214,0.893333,-0.03923,0.55548,0.873943,-0.03689,1,1,0.6
1039,'2026/05/06 10:41:04:695',5,0.637569,0.78661,0,0.609256,0.726878,-0.007604,0.569454,0.674086,-0.01609,0.553437,0.621022,-0.025151,0.552215,0.576645,-0.03525,0.495634,0.720823,-0.016982,0.483919,0.78896,-0.029678,0.506248,0.79672,-0.041011,0.521277,0.782192,-0.049438,0.495924,0.763647,-0.022548,0.488305,0.835764,-0.030145,0.5113,0.83694,-0.035153,0.527285,0.818137,-0.041427,0.507997,0.806688,-0.028302,0.500254,0.868002,-0.037062,0.521794,0.866115,-0.036304,0.537049,0.847103,-0.037379,0.524509,0.84532,-0.035348,0.522611,0.895415,-0.044063,0.541722,0.893995,-0.041963,0.554359,0.877035,-0.039361,1,1,0.6
1040,'2026/05/06 10:41:04:740',5,0.641908,0.789734,0,0.611102,0.727428,-0.005312,0.569289,0.674757,-0.012851,0.553327,0.620883,-0.021317,0.553397,0.575898,-0.031159,0.495654,0.72103,-0.014443,0.483492,0.787559,-0.024736,0.505742,0.797106,-0.035123,0.5209,0.784883,-0.043338,0.49529,0.764999,-0.020329,0.487925,0.834938,-0.025699,0.510688,0.837572,-0.030564,0.527464,0.820397,-0.037152,0.507055,0.809173,-0.025963,0.500352,0.867951,-0.032241,0.521015,0.866977,-0.031709,0.53672,0.849867,-0.033496,0.523338,0.848774,-0.032701,0.52191,0.894813,-0.039845,0.540639,0.892375,-0.037534,0.553307,0.875483,-0.034998,1,1,0.6
1041,'2026/05/06 10:41:04:784',5,0.63778,0.791578,0,0.608391,0.728079,-0.005047,0.569298,0.674488,-0.011551,0.553493,0.621889,-0.019065,0.552218,0.578128,-0.02794,0.495242,0.719568,-0.012318,0.484452,0.782948,-0.02181,0.505917,0.793973,-0.03201,0.521336,0.783896,-0.040263,0.493832,0.76416,-0.018134,0.487594,0.830448,-0.023276,0.509727,0.835482,-0.029188,0.527067,0.821365,-0.036447,0.504838,0.808834,-0.02367,0.499322,0.865128,-0.030584,0.519888,0.865972,-0.031325,0.536514,0.851,-0.033738,0.520746,0.848651,-0.030198,0.521443,0.893335,-0.038013,0.540303,0.89245,-0.036523,0.553565,0.877065,-0.034524,1,1,0.6
1042,'2026/05/06 10:41:04:822',5,0.639705,0.790916,0,0.609304,0.727934,-0.004986,0.569282,0.674406,-0.012317,0.553462,0.621692,-0.02072,0.553134,0.576336,-0.030196,0.496734,0.719767,-0.013985,0.482688,0.785042,-0.025013,0.504998,0.792993,-0.035226,0.520419,0.778995,-0.043123,0.49679,0.76345,-0.020368,0.486244,0.833961,-0.026511,0.509373,0.835399,-0.030869,0.525729,0.816176,-0.036975,0.508344,0.807753,-0.02671,0.498193,0.868104,-0.034138,0.519819,0.865361,-0.033149,0.53536,0.845409,-0.034435,0.524282,0.847487,-0.034096,0.521453,0.896179,-0.041615,0.541078,0.892976,-0.039027,0.55422,0.874705,-0.036387,1,1,0.6
1043,'2026/05/06 10:41:04:853',5,0.640342,0.789141,0,0.610094,0.728289,-0.005833,0.569581,0.67464,-0.012958,0.553985,0.62225,-0.021038,0.553155,0.579077,-0.030199,0.4957,0.721444,-0.012939,0.481972,0.788901,-0.024011,0.504351,0.798074,-0.034734,0.519718,0.784435,-0.043039,0.496026,0.764215,-0.018842,0.486971,0.836922,-0.025547,0.510538,0.838786,-0.030794,0.527154,0.820363,-0.037286,0.508089,0.80721,-0.024824,0.499695,0.870181,-0.032474,0.52123,0.868389,-0.031805,0.536829,0.849765,-0.033166,0.524179,0.845968,-0.032014,0.521493,0.896623,-0.040067,0.540776,0.89381,-0.037936,0.553649,0.875448,-0.035412,1,1,0.6
1044,'2026/05/06 10:41:04:881',5,0.638128,0.789151,0,0.608041,0.727424,-0.005336,0.568326,0.67524,-0.012415,0.552872,0.622346,-0.020386,0.552055,0.577783,-0.02944,0.494672,0.721408,-0.013291,0.483235,0.78798,-0.023752,0.505425,0.7967,-0.033844,0.520437,0.783196,-0.04174,0.494459,0.764889,-0.019222,0.48726,0.836003,-0.024686,0.510505,0.837862,-0.029276,0.526689,0.819106,-0.03559,0.506385,0.808751,-0.025092,0.499617,0.869407,-0.032062,0.521119,0.867344,-0.031345,0.536385,0.848342,-0.032801,0.523047,0.847948,-0.032051,0.522194,0.895963,-0.03953,0.54141,0.893535,-0.037119,0.553909,0.876244,-0.034491,1,1,0.6
1045,'2026/05/06 10:41:04:915',5,0.638753,0.794212,0,0.609974,0.72855,-0.006982,0.570213,0.671866,-0.014282,0.553542,0.620672,-0.022031,0.550209,0.576813,-0.030383,0.494076,0.717674,-0.016118,0.48279,0.787876,-0.028486,0.506374,0.79486,-0.039273,0.522389,0.7786,-0.047404,0.493683,0.761567,-0.021977,0.486888,0.836576,-0.029817,0.511853,0.836822,-0.035145,0.528846,0.815966,-0.041648,0.505286,0.806181,-0.02791,0.499392,0.870243,-0.037622,0.522112,0.866153,-0.036843,0.538041,0.844992,-0.037712,0.521362,0.846371,-0.035055,0.521478,0.896897,-0.04463,0.542041,0.893811,-0.04229,0.555585,0.875428,-0.039308,1,1,0.6
1046,'2026/05/06 10:41:04:951',5,0.636365,0.79335,0,0.607552,0.729671,-0.007211,0.568834,0.672588,-0.014304,0.553066,0.619779,-0.021789,0.550803,0.576215,-0.030046,0.492288,0.71926,-0.014967,0.483329,0.788328,-0.026246,0.506444,0.79554,-0.037108,0.521323,0.780496,-0.045481,0.492054,0.763603,-0.020297,0.487679,0.837364,-0.02702,0.512345,0.838003,-0.032755,0.528914,0.818688,-0.03975,0.50349,0.807903,-0.02569,0.499364,0.870517,-0.034609,0.521906,0.867235,-0.034701,0.537735,0.847866,-0.036265,0.519198,0.8476,-0.032286,0.520203,0.896857,-0.041352,0.539883,0.894616,-0.039501,0.552639,0.877161,-0.037005,1,1,0.6
1047,'2026/05/06 10:41:04:988',5,0.636365,0.79335,0,0.607552,0.729671,-0.007211,0.568834,0.672588,-0.014304,0.553066,0.619779,-0.021789,0.550803,0.576215,-0.030046,0.492288,0.71926,-0.014967,0.483329,0.788328,-0.026246,0.506444,0.79554,-0.037108,0.521323,0.780496,-0.045481,0.492054,0.763603,-0.020297,0.487679,0.837364,-0.02702,0.512345,0.838003,-0.032755,0.528914,0.818688,-0.03975,0.50349,0.807903,-0.02569,0.499364,0.870517,-0.034609,0.521906,0.867235,-0.034701,0.537735,0.847866,-0.036265,0.519198,0.8476,-0.032286,0.520203,0.896857,-0.041352,0.539883,0.894616,-0.039501,0.552639,0.877161,-0.037005,1,1,0.6
1048,'2026/05/06 10:41:05:027',5,0.640667,0.79401,0,0.610749,0.730832,-0.003904,0.569672,0.674683,-0.009685,0.5528,0.621002,-0.016463,0.552343,0.576856,-0.024505,0.493302,0.719778,-0.011536,0.481832,0.786409,-0.020324,0.505013,0.79594,-0.03,0.520986,0.783354,-0.037793,0.493108,0.7645,-0.017594,0.484855,0.836043,-0.021415,0.509606,0.838778,-0.025932,0.527084,0.821019,-0.032561,0.504857,0.809108,-0.023294,0.496592,0.869485,-0.029087,0.518995,0.867432,-0.028745,0.536083,0.849387,-0.030655,0.520818,0.848754,-0.029907,0.518639,0.896103,-0.036178,0.538469,0.894266,-0.033413,0.552533,0.877669,-0.030742,1,1,0.6
1049,'2026/05/06 10:41:05:060',5,0.637904,0.794684,0,0.608516,0.730572,-0.004977,0.568936,0.674661,-0.011134,0.552684,0.621801,-0.018123,0.551181,0.577616,-0.026277,0.494277,0.72077,-0.012495,0.482034,0.783712,-0.022287,0.504357,0.793001,-0.032461,0.520024,0.780987,-0.040518,0.494038,0.766083,-0.018314,0.484648,0.831746,-0.023431,0.508069,0.834938,-0.028575,0.525474,0.818734,-0.035315,0.505797,0.81108,-0.023945,0.496638,0.866935,-0.031093,0.517936,0.866138,-0.031026,0.534853,0.849648,-0.032754,0.521903,0.850451,-0.030519,0.519678,0.896399,-0.038003,0.538152,0.89619,-0.035758,0.551497,0.881022,-0.033266,1,1,0.6
1050,'2026/05/06 10:41:05:099',5,0.639777,0.792742,0,0.609293,0.730477,-0.005673,0.568237,0.676007,-0.013205,0.551633,0.623141,-0.021489,0.550857,0.579142,-0.030711,0.494148,0.722152,-0.016044,0.481332,0.792213,-0.027713,0.504373,0.80031,-0.038067,0.519701,0.785478,-0.045921,0.494887,0.766352,-0.022132,0.486036,0.840444,-0.028992,0.510036,0.841279,-0.033359,0.526231,0.821306,-0.039401,0.507328,0.81018,-0.028123,0.498386,0.872903,-0.036372,0.520327,0.869318,-0.035369,0.535811,0.84898,-0.036393,0.52391,0.849162,-0.03517,0.520805,0.898408,-0.04307,0.54012,0.895281,-0.040425,0.553298,0.87713,-0.037584,1,1,0.6
1051,'2026/05/06 10:41:05:135',5,0.636824,0.791678,0,0.608449,0.730218,-0.006485,0.569133,0.673946,-0.01364,0.552767,0.620682,-0.021301,0.551253,0.578704,-0.030019,0.492079,0.721106,-0.016121,0.481441,0.791486,-0.027836,0.504567,0.79964,-0.038784,0.519481,0.784603,-0.047168,0.49298,0.764643,-0.021832,0.48559,0.840555,-0.028454,0.510064,0.842486,-0.033472,0.526201,0.82308,-0.040166,0.504865,0.807939,-0.027486,0.498158,0.873241,-0.036414,0.521116,0.870014,-0.036004,0.53699,0.849876,-0.037435,0.520561,0.846948,-0.034245,0.520379,0.899009,-0.04327,0.54106,0.896134,-0.041088,0.554384,0.877466,-0.038549,1,1,0.6
1052,'2026/05/06 10:41:05:174',5,0.636909,0.793222,0,0.606684,0.72915,-0.006423,0.567492,0.674467,-0.0135,0.551361,0.622632,-0.021187,0.550135,0.579135,-0.029758,0.492137,0.723331,-0.014839,0.481762,0.793918,-0.025781,0.505215,0.801274,-0.035938,0.520726,0.785872,-0.043857,0.49304,0.767077,-0.020517,0.486675,0.841938,-0.027286,0.511159,0.842016,-0.032544,0.527801,0.821821,-0.039153,0.505749,0.810229,-0.026175,0.49934,0.873746,-0.034912,0.521427,0.869681,-0.034982,0.537143,0.849569,-0.036554,0.522677,0.848785,-0.032956,0.522006,0.89872,-0.041921,0.541544,0.895672,-0.040205,0.554567,0.877688,-0.037849,1,1,0.6
1053,'2026/05/06 10:41:05:222',5,0.637687,0.79639,0,0.608065,0.732,-0.00698,0.568685,0.674412,-0.014286,0.552015,0.622023,-0.021931,0.548691,0.578328,-0.030194,0.493106,0.719531,-0.016634,0.482001,0.788683,-0.027935,0.505384,0.795625,-0.038056,0.521073,0.779821,-0.045923,0.493913,0.763869,-0.022329,0.486405,0.837462,-0.029221,0.511335,0.837971,-0.034029,0.528707,0.818086,-0.040406,0.505968,0.808398,-0.027987,0.499018,0.870606,-0.03689,0.521263,0.866913,-0.036057,0.537465,0.846882,-0.037083,0.522038,0.848204,-0.034801,0.520975,0.897185,-0.043516,0.540372,0.894772,-0.04098,0.553703,0.876955,-0.038082,1,1,0.6
1054,'2026/05/06 10:41:05:265',5,0.639706,0.792109,0,0.610956,0.730864,-0.006712,0.56931,0.676527,-0.014187,0.551627,0.623523,-0.022182,0.55072,0.579338,-0.03102,0.493112,0.723525,-0.01638,0.481479,0.795132,-0.02841,0.504883,0.801636,-0.038987,0.519791,0.78492,-0.046847,0.494057,0.766895,-0.022003,0.486833,0.844136,-0.029096,0.511126,0.843317,-0.03345,0.526687,0.821375,-0.039392,0.506265,0.810485,-0.027714,0.500199,0.876105,-0.036041,0.522836,0.870232,-0.034929,0.537525,0.847374,-0.035911,0.522793,0.850148,-0.034659,0.522618,0.901602,-0.042813,0.54331,0.895853,-0.040323,0.556146,0.874983,-0.037551,1,1,0.6
1055,'2026/05/06 10:41:05:310',5,0.639786,0.789983,0,0.608275,0.73046,-0.005693,0.567555,0.677232,-0.013245,0.551307,0.623849,-0.021564,0.550247,0.580423,-0.030714,0.493265,0.724189,-0.014802,0.479336,0.795558,-0.026186,0.502989,0.802142,-0.036544,0.517998,0.785622,-0.044368,0.495141,0.767075,-0.020763,0.485849,0.844051,-0.027196,0.510138,0.843183,-0.031286,0.525855,0.821445,-0.037169,0.508204,0.809986,-0.026758,0.499271,0.875606,-0.033932,0.52085,0.870562,-0.032469,0.535199,0.848876,-0.033491,0.524991,0.84873,-0.033941,0.52186,0.900306,-0.040964,0.541268,0.895007,-0.038033,0.553666,0.874817,-0.03516,1,1,0.6
1056,'2026/05/06 10:41:05:358',5,0.639563,0.794884,0,0.610422,0.733203,-0.007064,0.569689,0.675998,-0.014512,0.552869,0.622424,-0.022315,0.549137,0.578485,-0.030824,0.492994,0.720155,-0.016158,0.481512,0.792991,-0.028199,0.50547,0.800522,-0.03915,0.521058,0.784454,-0.047356,0.493149,0.763363,-0.021795,0.485247,0.840456,-0.028695,0.510689,0.841447,-0.033643,0.527371,0.821217,-0.04017,0.505073,0.807262,-0.027516,0.498173,0.872811,-0.036115,0.521653,0.869151,-0.035169,0.537622,0.848349,-0.036267,0.521268,0.846967,-0.034478,0.520531,0.898085,-0.042829,0.541293,0.894783,-0.040126,0.554644,0.875991,-0.037203,1,1,0.6
1057,'2026/05/06 10:41:05:405',5,0.639931,0.795828,0,0.610265,0.732417,-0.007035,0.56989,0.675447,-0.014277,0.552217,0.623153,-0.02185,0.548464,0.579242,-0.02994,0.492448,0.720192,-0.015973,0.481063,0.792222,-0.027187,0.505517,0.798726,-0.037148,0.52176,0.782641,-0.04486,0.492355,0.762845,-0.021526,0.48613,0.841337,-0.028256,0.511838,0.840863,-0.033373,0.528812,0.819748,-0.040044,0.504131,0.806417,-0.027054,0.49918,0.87352,-0.035637,0.522217,0.868488,-0.035282,0.538094,0.847137,-0.036858,0.520598,0.846232,-0.033816,0.5216,0.898526,-0.04268,0.542134,0.89512,-0.040689,0.555345,0.876736,-0.038206,1,1,0.6
1058,'2026/05/06 10:41:05:441',5,0.636575,0.796405,0,0.608877,0.733119,-0.008139,0.568698,0.675689,-0.015778,0.552601,0.622399,-0.02368,0.549886,0.578681,-0.032297,0.491868,0.721808,-0.016658,0.483085,0.790416,-0.030042,0.506867,0.796614,-0.04259,0.521979,0.780015,-0.051808,0.491701,0.765859,-0.021846,0.487869,0.839916,-0.029525,0.512496,0.83963,-0.035476,0.528593,0.818602,-0.042603,0.50304,0.810188,-0.027324,0.500721,0.872842,-0.037154,0.523251,0.867634,-0.037089,0.538567,0.845705,-0.038432,0.518577,0.849963,-0.034127,0.521742,0.899335,-0.043754,0.542389,0.895134,-0.041716,0.555533,0.875714,-0.038955,1,1,0.6
1059,'2026/05/06 10:41:05:471',5,0.635839,0.795473,0,0.606705,0.730893,-0.00711,0.568158,0.674218,-0.014106,0.552338,0.622164,-0.021495,0.549266,0.579019,-0.029443,0.49214,0.72063,-0.015042,0.483166,0.790486,-0.026547,0.506881,0.796756,-0.037262,0.522173,0.780799,-0.045399,0.491904,0.764524,-0.020358,0.487434,0.838711,-0.027323,0.512406,0.838059,-0.033027,0.52862,0.817632,-0.039955,0.503265,0.808556,-0.025751,0.498969,0.871894,-0.035071,0.52176,0.866966,-0.035312,0.537567,0.846208,-0.036865,0.518784,0.848208,-0.032312,0.52,0.897796,-0.041617,0.540364,0.894653,-0.039885,0.553864,0.876876,-0.037395,1,1,0.6
1060,'2026/05/06 10:41:05:501',5,0.637268,0.794369,0,0.607916,0.730693,-0.004443,0.569051,0.675197,-0.009875,0.552482,0.623426,-0.016154,0.550222,0.580675,-0.023423,0.491787,0.721354,-0.011072,0.483775,0.790939,-0.019722,0.506895,0.799334,-0.029036,0.522018,0.784957,-0.036602,0.491432,0.76406,-0.016935,0.487718,0.840095,-0.020557,0.511977,0.841571,-0.025393,0.528167,0.822007,-0.032388,0.503193,0.807766,-0.022569,0.499009,0.873339,-0.028772,0.521305,0.870049,-0.029139,0.53719,0.850155,-0.031619,0.519436,0.847812,-0.02918,0.52026,0.898964,-0.036436,0.53996,0.896225,-0.03457,0.553172,0.878827,-0.032509,1,1,0.6
1061,'2026/05/06 10:41:05:534',5,0.636642,0.794853,0,0.608571,0.732243,-0.007091,0.568683,0.676008,-0.013934,0.552771,0.623181,-0.021195,0.551506,0.579728,-0.029387,0.492775,0.722863,-0.01502,0.483105,0.789901,-0.025787,0.505613,0.799306,-0.036108,0.520853,0.786587,-0.044127,0.492464,0.76679,-0.020167,0.486276,0.838791,-0.026483,0.510593,0.841272,-0.03179,0.527327,0.822874,-0.038531,0.504168,0.810513,-0.025303,0.498096,0.871662,-0.033911,0.520638,0.869295,-0.033947,0.537107,0.85014,-0.035496,0.520123,0.849703,-0.031595,0.520074,0.897374,-0.040196,0.540153,0.895041,-0.038106,0.554058,0.877334,-0.035543,1,1,0.6
1062,'2026/05/06 10:41:05:570',5,0.635035,0.792783,0,0.606968,0.731358,-0.007395,0.567916,0.675339,-0.015134,0.55331,0.621679,-0.023287,0.552888,0.578476,-0.032624,0.493036,0.721398,-0.017652,0.480974,0.789195,-0.029199,0.503457,0.798046,-0.039883,0.518471,0.784634,-0.048067,0.493649,0.766233,-0.022846,0.484491,0.838621,-0.029712,0.508392,0.841078,-0.034699,0.525173,0.822931,-0.041309,0.505459,0.810281,-0.027967,0.496596,0.871804,-0.036751,0.519093,0.869072,-0.036348,0.535739,0.849788,-0.037729,0.521031,0.849623,-0.034223,0.518344,0.898689,-0.042898,0.538125,0.896104,-0.040633,0.552008,0.87789,-0.038071,1,1,0.6
1063,'2026/05/06 10:41:05:611',5,0.637577,0.796271,0,0.608123,0.731833,-0.006744,0.568883,0.675024,-0.01388,0.55237,0.62227,-0.021475,0.549291,0.578642,-0.029596,0.493042,0.719592,-0.01559,0.481093,0.792714,-0.026782,0.505293,0.799383,-0.036786,0.520938,0.782627,-0.044418,0.49348,0.763278,-0.021235,0.486227,0.840659,-0.02808,0.511467,0.839922,-0.033048,0.528402,0.81887,-0.039505,0.504964,0.807504,-0.026869,0.498664,0.872095,-0.0358,0.521466,0.866958,-0.035256,0.537475,0.845818,-0.036414,0.520425,0.847893,-0.03365,0.519501,0.896339,-0.042189,0.539702,0.892572,-0.039658,0.553315,0.874122,-0.03675,1,1,0.6
1064,'2026/05/06 10:41:05:659',5,0.637977,0.791847,0,0.608275,0.731784,-0.00732,0.567836,0.676848,-0.015948,0.551872,0.622667,-0.025174,0.55157,0.577917,-0.035351,0.493463,0.722407,-0.018331,0.479768,0.794079,-0.030794,0.502395,0.801672,-0.041505,0.516825,0.785955,-0.049515,0.494679,0.765593,-0.024087,0.484664,0.841625,-0.031965,0.50838,0.841455,-0.036554,0.524053,0.820588,-0.042705,0.507115,0.80913,-0.029843,0.497507,0.874074,-0.038671,0.519607,0.869734,-0.037547,0.534891,0.848553,-0.038522,0.523366,0.848776,-0.036852,0.520065,0.899963,-0.045083,0.539587,0.895681,-0.042581,0.552821,0.876254,-0.039917,1,1,0.6
1065,'2026/05/06 10:41:05:689',5,0.638343,0.795268,0,0.608015,0.73177,-0.006217,0.568665,0.675667,-0.014015,0.552675,0.620817,-0.022488,0.551688,0.576348,-0.031837,0.490575,0.721645,-0.01626,0.481186,0.792189,-0.027653,0.504153,0.798589,-0.038548,0.518325,0.782546,-0.046996,0.491097,0.766438,-0.022311,0.48577,0.841904,-0.028784,0.509918,0.841303,-0.033969,0.525278,0.820181,-0.04095,0.50331,0.81059,-0.028198,0.498231,0.874181,-0.036371,0.520537,0.868817,-0.035965,0.535826,0.84705,-0.037576,0.51977,0.849983,-0.035238,0.519776,0.899244,-0.043207,0.540053,0.894872,-0.040647,0.55372,0.875563,-0.037901,1,1,0.6
1066,'2026/05/06 10:41:05:720',5,0.638077,0.794545,0,0.607976,0.732702,-0.006772,0.567976,0.675038,-0.014116,0.552271,0.621373,-0.021952,0.550142,0.577192,-0.030694,0.492418,0.722304,-0.015915,0.480358,0.791395,-0.027004,0.503673,0.799805,-0.037137,0.519418,0.784938,-0.045,0.493197,0.765584,-0.02167,0.484876,0.839902,-0.028026,0.509335,0.841908,-0.032908,0.526454,0.822775,-0.039472,0.505765,0.80911,-0.027397,0.497073,0.872924,-0.035566,0.519548,0.871155,-0.034782,0.536145,0.85202,-0.036053,0.522506,0.848497,-0.034309,0.519525,0.900176,-0.042606,0.538981,0.898829,-0.040114,0.552477,0.881443,-0.0374,1,1,0.6
1067,'2026/05/06 10:41:05:755',5,0.637282,0.794352,0,0.607632,0.731995,-0.006647,0.56854,0.67686,-0.014316,0.552677,0.623504,-0.022594,0.551395,0.579183,-0.032017,0.492339,0.722347,-0.015803,0.482369,0.790255,-0.026773,0.504793,0.800821,-0.03723,0.519917,0.788977,-0.045366,0.492577,0.766477,-0.021336,0.484791,0.838946,-0.027768,0.509189,0.843298,-0.03278,0.526555,0.826635,-0.039372,0.504583,0.810395,-0.026747,0.496205,0.871832,-0.035346,0.519051,0.871248,-0.034879,0.536402,0.853814,-0.036108,0.520885,0.849669,-0.033225,0.518448,0.897539,-0.041684,0.538121,0.896947,-0.039157,0.552017,0.880972,-0.036305,1,1,0.6
1068,'2026/05/06 10:41:05:788',5,0.637282,0.794352,0,0.607632,0.731995,-0.006647,0.56854,0.67686,-0.014316,0.552677,0.623504,-0.022594,0.551395,0.579183,-0.032017,0.492339,0.722347,-0.015803,0.482369,0.790255,-0.026773,0.504793,0.800821,-0.03723,0.519917,0.788977,-0.045366,0.492577,0.766477,-0.021336,0.484791,0.838946,-0.027768,0.509189,0.843298,-0.03278,0.526555,0.826635,-0.039372,0.504583,0.810395,-0.026747,0.496205,0.871832,-0.035346,0.519051,0.871248,-0.034879,0.536402,0.853814,-0.036108,0.520885,0.849669,-0.033225,0.518448,0.897539,-0.041684,0.538121,0.896947,-0.039157,0.552017,0.880972,-0.036305,1,1,0.6
1069,'2026/05/06 10:41:05:823',5,0.635167,0.794701,0,0.606486,0.732527,-0.007941,0.568306,0.675543,-0.015876,0.552606,0.622386,-0.023991,0.549977,0.579021,-0.032836,0.491001,0.720575,-0.017828,0.482771,0.789965,-0.029633,0.505779,0.797931,-0.040472,0.520255,0.783054,-0.048867,0.490777,0.76368,-0.023069,0.486788,0.840234,-0.0298,0.511403,0.841446,-0.035007,0.527277,0.821501,-0.04194,0.502345,0.80725,-0.028274,0.498916,0.873202,-0.037225,0.521529,0.869363,-0.036881,0.536872,0.848532,-0.038437,0.518172,0.84683,-0.034756,0.52046,0.899124,-0.04392,0.540841,0.89581,-0.04186,0.553942,0.87723,-0.039345,1,1,0.6
1070,'2026/05/06 10:41:05:860',5,0.6373,0.792397,0,0.606686,0.731305,-0.006122,0.566843,0.676498,-0.013628,0.552008,0.622665,-0.021903,0.551636,0.579189,-0.031171,0.491451,0.722522,-0.014956,0.480606,0.79348,-0.026249,0.503488,0.801535,-0.036887,0.517943,0.786568,-0.045047,0.492267,0.766035,-0.020923,0.484648,0.841417,-0.027381,0.508814,0.842961,-0.032257,0.524574,0.823421,-0.038795,0.504325,0.809257,-0.026885,0.496716,0.873531,-0.034825,0.519037,0.870487,-0.034188,0.53432,0.850208,-0.035603,0.520349,0.848205,-0.034022,0.518015,0.898585,-0.041787,0.537637,0.896567,-0.039186,0.550492,0.878745,-0.036478,1,1,0.6
1071,'2026/05/06 10:41:05:890',5,0.634299,0.796,0,0.605212,0.731702,-0.007794,0.567622,0.674214,-0.015166,0.552389,0.620714,-0.022905,0.550542,0.577589,-0.031491,0.491786,0.718025,-0.015158,0.482342,0.789626,-0.027021,0.50605,0.798439,-0.038606,0.521182,0.783825,-0.047489,0.492206,0.76208,-0.020197,0.485407,0.838974,-0.02767,0.51121,0.840758,-0.034005,0.528665,0.821705,-0.041391,0.50333,0.806891,-0.025361,0.497066,0.87332,-0.035206,0.520855,0.869249,-0.035942,0.537793,0.849163,-0.037832,0.518038,0.847728,-0.031695,0.517408,0.899074,-0.041155,0.537859,0.896127,-0.039484,0.551777,0.877372,-0.037183,1,1,0.6
1072,'2026/05/06 10:41:05:919',5,0.632151,0.791594,0,0.604882,0.730371,-0.008196,0.566864,0.674532,-0.016619,0.552187,0.621327,-0.025324,0.550699,0.578139,-0.035099,0.491668,0.722229,-0.019622,0.478843,0.791878,-0.031757,0.501428,0.800201,-0.042293,0.516501,0.78545,-0.050312,0.493127,0.76582,-0.024862,0.483543,0.841101,-0.032484,0.507241,0.842953,-0.037359,0.523862,0.823151,-0.043985,0.505512,0.809287,-0.030095,0.49674,0.873503,-0.039267,0.518916,0.870142,-0.038401,0.535273,0.849375,-0.039633,0.521693,0.848655,-0.03657,0.51819,0.900664,-0.045481,0.537454,0.89836,-0.043073,0.55105,0.87959,-0.040558,1,1,0.6
1073,'2026/05/06 10:41:05:955',5,0.637388,0.795283,0,0.607648,0.733079,-0.004375,0.56786,0.676626,-0.010491,0.551873,0.622975,-0.017376,0.55214,0.579273,-0.025634,0.492172,0.720996,-0.013776,0.480903,0.787672,-0.022575,0.503852,0.798396,-0.031942,0.519812,0.786588,-0.039549,0.491774,0.765271,-0.019717,0.483704,0.836362,-0.023563,0.507959,0.840158,-0.027947,0.525737,0.82343,-0.034471,0.50325,0.809453,-0.025151,0.494794,0.870003,-0.031168,0.517122,0.868874,-0.030895,0.534528,0.851237,-0.032824,0.518974,0.849494,-0.031458,0.516295,0.898047,-0.038227,0.535759,0.897142,-0.035541,0.549927,0.880817,-0.032877,1,1,0.6
1074,'2026/05/06 10:41:06:002',5,0.636723,0.791414,0,0.607097,0.73145,-0.004743,0.567725,0.678081,-0.011767,0.551614,0.623912,-0.019772,0.551726,0.580135,-0.029263,0.494069,0.723114,-0.014272,0.479169,0.789404,-0.023438,0.499788,0.800314,-0.032942,0.514186,0.789576,-0.040592,0.495002,0.766721,-0.020205,0.483192,0.837835,-0.024554,0.504845,0.841911,-0.028758,0.521348,0.825418,-0.035167,0.507432,0.810146,-0.025729,0.495822,0.871253,-0.031195,0.515734,0.870485,-0.030462,0.531784,0.853102,-0.032376,0.523985,0.849592,-0.032231,0.517975,0.899643,-0.038201,0.535437,0.89766,-0.035416,0.548714,0.880764,-0.032986,1,1,0.6
1075,'2026/05/06 10:41:06:045',5,0.635217,0.791889,0,0.607353,0.732093,-0.008597,0.567144,0.676818,-0.01744,0.551282,0.623108,-0.026512,0.551636,0.579196,-0.036337,0.490913,0.724061,-0.020374,0.479234,0.794386,-0.033678,0.502073,0.8006,-0.044533,0.516526,0.7839,-0.052511,0.49205,0.767699,-0.025644,0.484634,0.843138,-0.034186,0.508672,0.842358,-0.038494,0.523811,0.820958,-0.044321,0.504599,0.810819,-0.031044,0.497999,0.875233,-0.040682,0.520322,0.869827,-0.039332,0.534874,0.847514,-0.039992,0.521129,0.849593,-0.037819,0.519508,0.901056,-0.046918,0.539478,0.896711,-0.044512,0.552483,0.877012,-0.041753,1,1,0.6
1076,'2026/05/06 10:41:06:082',5,0.637107,0.791811,0,0.606552,0.730625,-0.004751,0.566631,0.677677,-0.01201,0.551013,0.624226,-0.02035,0.551125,0.579967,-0.029857,0.492284,0.723943,-0.013949,0.479569,0.792962,-0.024351,0.501929,0.801219,-0.034486,0.516886,0.787053,-0.042432,0.493064,0.767362,-0.020259,0.484114,0.841059,-0.025911,0.507372,0.842097,-0.030325,0.523485,0.82249,-0.036685,0.505306,0.810591,-0.026353,0.496985,0.873831,-0.032922,0.518474,0.870116,-0.031978,0.533857,0.849754,-0.033583,0.521575,0.849554,-0.033528,0.518947,0.899833,-0.040372,0.538232,0.895597,-0.037706,0.551391,0.876429,-0.035175,1,1,0.6
1077,'2026/05/06 10:41:06:109',5,0.637022,0.79138,0,0.606356,0.730827,-0.005394,0.567327,0.677276,-0.013125,0.551351,0.622726,-0.021856,0.550745,0.57881,-0.031816,0.491728,0.723314,-0.014648,0.479233,0.792031,-0.025023,0.500532,0.800623,-0.035262,0.514217,0.787413,-0.04335,0.492983,0.767216,-0.020782,0.483852,0.840994,-0.026679,0.506213,0.842106,-0.031817,0.521413,0.823072,-0.038799,0.505426,0.81085,-0.026639,0.4971,0.874622,-0.033559,0.518312,0.870191,-0.033209,0.533464,0.849723,-0.035198,0.521664,0.850474,-0.033611,0.519661,0.900578,-0.040486,0.538952,0.895741,-0.038014,0.552136,0.876268,-0.035716,1,1,0.6
1078,'2026/05/06 10:41:06:139',5,0.635025,0.790484,0,0.605507,0.729177,-0.005065,0.56678,0.676316,-0.012476,0.551284,0.621764,-0.020922,0.550103,0.577782,-0.030718,0.491477,0.72298,-0.014538,0.479192,0.791126,-0.024369,0.500344,0.799721,-0.034385,0.514425,0.786828,-0.042348,0.492266,0.767329,-0.020532,0.483584,0.839765,-0.025439,0.505435,0.840984,-0.030066,0.521068,0.822324,-0.036969,0.504486,0.811474,-0.026225,0.496598,0.873111,-0.032304,0.516942,0.869419,-0.031803,0.532325,0.850172,-0.03392,0.520759,0.851412,-0.032994,0.519046,0.899496,-0.039305,0.537363,0.895086,-0.036791,0.550199,0.876587,-0.034602,1,1,0.6
1079,'2026/05/06 10:41:06:171',5,0.635145,0.790815,0,0.607027,0.732596,-0.006359,0.566927,0.679059,-0.014576,0.551981,0.62474,-0.02356,0.551879,0.579786,-0.034077,0.492757,0.721929,-0.016799,0.479047,0.786922,-0.028116,0.499963,0.797477,-0.039331,0.515119,0.786229,-0.047979,0.492612,0.7655,-0.022431,0.483016,0.835407,-0.028402,0.505101,0.838839,-0.033165,0.522276,0.822012,-0.039721,0.504443,0.80944,-0.027872,0.495581,0.869221,-0.034514,0.515935,0.868494,-0.033451,0.531984,0.850909,-0.03492,0.520765,0.8494,-0.034496,0.51723,0.898006,-0.041384,0.535353,0.895249,-0.038516,0.548428,0.877794,-0.035769,1,1,0.6
1080,'2026/05/06 10:41:06:196',5,0.635145,0.790815,0,0.607027,0.732596,-0.006359,0.566927,0.679059,-0.014576,0.551981,0.62474,-0.02356,0.551879,0.579786,-0.034077,0.492757,0.721929,-0.016799,0.479047,0.786922,-0.028116,0.499963,0.797477,-0.039331,0.515119,0.786229,-0.047979,0.492612,0.7655,-0.022431,0.483016,0.835407,-0.028402,0.505101,0.838839,-0.033165,0.522276,0.822012,-0.039721,0.504443,0.80944,-0.027872,0.495581,0.869221,-0.034514,0.515935,0.868494,-0.033451,0.531984,0.850909,-0.03492,0.520765,0.8494,-0.034496,0.51723,0.898006,-0.041384,0.535353,0.895249,-0.038516,0.548428,0.877794,-0.035769,1,1,0.6
1081,'2026/05/06 10:41:06:238',5,0.636535,0.791639,0,0.605942,0.730114,-0.004197,0.566535,0.676649,-0.01111,0.550935,0.623275,-0.01929,0.550729,0.579299,-0.028782,0.491658,0.723116,-0.012318,0.479093,0.788884,-0.022482,0.500833,0.79764,-0.033028,0.515804,0.784638,-0.041325,0.491601,0.766613,-0.018808,0.483103,0.836083,-0.023801,0.50545,0.838428,-0.028611,0.521777,0.820422,-0.035337,0.503433,0.810376,-0.025081,0.495443,0.87029,-0.031023,0.516208,0.868131,-0.030304,0.531789,0.848883,-0.032163,0.519646,0.850094,-0.032428,0.517934,0.899,-0.038605,0.536898,0.895516,-0.035834,0.549899,0.877079,-0.033365,1,1,0.6
1082,'2026/05/06 10:41:06:265',5,0.634914,0.793848,0,0.607256,0.732914,-0.007277,0.567659,0.676228,-0.014518,0.551328,0.621915,-0.022002,0.550464,0.577828,-0.030493,0.490645,0.721536,-0.016555,0.480516,0.789225,-0.026584,0.503155,0.798642,-0.036339,0.518117,0.785968,-0.044075,0.490516,0.765657,-0.021565,0.484339,0.838671,-0.026622,0.507746,0.840996,-0.031407,0.524039,0.822733,-0.038255,0.501988,0.810013,-0.026388,0.49641,0.872139,-0.033541,0.518184,0.869134,-0.03348,0.534237,0.849401,-0.035596,0.51752,0.850419,-0.032366,0.517256,0.900417,-0.040019,0.536591,0.897465,-0.037821,0.549865,0.879032,-0.035533,1,1,0.6
1083,'2026/05/06 10:41:06:295',5,0.633677,0.788998,0,0.604395,0.728101,-0.00572,0.56539,0.677411,-0.013254,0.549773,0.624173,-0.021795,0.550231,0.579038,-0.031805,0.493161,0.724177,-0.014684,0.481152,0.787899,-0.024884,0.501038,0.796843,-0.035153,0.514368,0.785295,-0.043248,0.494014,0.76914,-0.020312,0.484194,0.836319,-0.025994,0.504548,0.839152,-0.030804,0.520266,0.822503,-0.037367,0.506419,0.813271,-0.025744,0.496275,0.870118,-0.032664,0.515277,0.86885,-0.032472,0.530941,0.851792,-0.034304,0.523143,0.852329,-0.032214,0.519128,0.898337,-0.038951,0.536037,0.895208,-0.036618,0.549086,0.878166,-0.034342,1,1,0.6
1084,'2026/05/06 10:41:06:329',5,0.631472,0.791416,0,0.603609,0.72969,-0.005563,0.565568,0.676494,-0.013038,0.550204,0.624801,-0.021428,0.550024,0.581007,-0.031084,0.491714,0.721491,-0.016177,0.479966,0.784493,-0.027013,0.501474,0.794181,-0.037159,0.516272,0.782183,-0.045233,0.491282,0.765392,-0.022416,0.483631,0.833363,-0.028782,0.506118,0.836454,-0.033424,0.522651,0.819617,-0.039756,0.503005,0.809683,-0.028371,0.49582,0.868328,-0.035887,0.516653,0.867394,-0.035029,0.532336,0.849701,-0.036495,0.519164,0.84954,-0.03539,0.518223,0.897984,-0.043345,0.536903,0.895092,-0.041087,0.549962,0.87732,-0.038689,1,1,0.6
1085,'2026/05/06 10:41:06:371',5,0.634784,0.794418,0,0.605546,0.730823,-0.005961,0.56601,0.675046,-0.013267,0.549918,0.622746,-0.021259,0.548608,0.578848,-0.030174,0.491258,0.720733,-0.015839,0.479422,0.787672,-0.026912,0.501606,0.795608,-0.037225,0.516716,0.78163,-0.045226,0.490963,0.765482,-0.02172,0.48304,0.836062,-0.028077,0.506535,0.837331,-0.032813,0.522877,0.818754,-0.039327,0.502687,0.810133,-0.027437,0.494775,0.87025,-0.03538,0.516744,0.867266,-0.034529,0.532652,0.848053,-0.03582,0.518771,0.849994,-0.03423,0.516404,0.897217,-0.041954,0.535842,0.894103,-0.03923,0.549327,0.876271,-0.036461,1,1,0.6
1086,'2026/05/06 10:41:06:417',5,0.634455,0.789717,0,0.60507,0.728993,-0.006181,0.565402,0.67718,-0.013998,0.54924,0.623397,-0.022706,0.548299,0.578414,-0.03271,0.490646,0.722368,-0.014868,0.479245,0.790092,-0.025835,0.500129,0.799208,-0.036887,0.513633,0.786439,-0.045414,0.49098,0.765608,-0.020497,0.483596,0.839014,-0.026231,0.505348,0.841134,-0.03112,0.520735,0.822635,-0.037839,0.50299,0.809049,-0.026065,0.49602,0.87155,-0.032818,0.516396,0.868494,-0.032216,0.531659,0.849077,-0.033938,0.519714,0.848209,-0.032855,0.518341,0.897952,-0.039684,0.536702,0.893978,-0.037078,0.54949,0.875516,-0.034539,1,1,0.6
1087,'2026/05/06 10:41:06:459',5,0.636005,0.78923,0,0.605039,0.728991,-0.003616,0.564559,0.676903,-0.01022,0.548277,0.623039,-0.018016,0.548923,0.578117,-0.027263,0.490441,0.721686,-0.01298,0.47944,0.78813,-0.022057,0.500093,0.797848,-0.03175,0.513523,0.786097,-0.03961,0.490867,0.765486,-0.019322,0.483192,0.838175,-0.023198,0.504627,0.840844,-0.027493,0.519872,0.823033,-0.034235,0.502835,0.809495,-0.025189,0.495585,0.871955,-0.030243,0.51592,0.869129,-0.029718,0.530964,0.850065,-0.032031,0.51897,0.849095,-0.032025,0.517447,0.898202,-0.037691,0.536,0.894442,-0.034988,0.548756,0.87637,-0.032754,1,1,0.6
1088,'2026/05/06 10:41:06:501',5,0.632888,0.79047,0,0.603426,0.728696,-0.005476,0.563714,0.675021,-0.012496,0.547933,0.622758,-0.020401,0.548196,0.578476,-0.029361,0.489448,0.720568,-0.013579,0.479482,0.790205,-0.024282,0.502086,0.798332,-0.034882,0.516609,0.783724,-0.043193,0.489615,0.764139,-0.019685,0.483516,0.838408,-0.025453,0.507196,0.839627,-0.030469,0.522609,0.820219,-0.037167,0.501367,0.807938,-0.025694,0.494959,0.87134,-0.0331,0.51714,0.867763,-0.032639,0.531962,0.846905,-0.034302,0.517254,0.847422,-0.032816,0.516561,0.897252,-0.040457,0.536717,0.893548,-0.037933,0.549675,0.874654,-0.035309,1,1,0.6
1089,'2026/05/06 10:41:06:528',5,0.632735,0.789429,0,0.603844,0.727912,-0.006179,0.563985,0.673882,-0.013697,0.547627,0.622003,-0.021833,0.54625,0.578576,-0.030889,0.489229,0.7209,-0.016671,0.47709,0.786733,-0.02809,0.499463,0.794226,-0.038412,0.514253,0.780031,-0.046384,0.489168,0.764678,-0.022352,0.481912,0.83599,-0.029177,0.505226,0.836836,-0.033553,0.521145,0.817578,-0.039611,0.501047,0.808285,-0.027879,0.494875,0.869198,-0.035795,0.516023,0.866227,-0.034704,0.530979,0.846687,-0.035862,0.517162,0.847072,-0.034559,0.517178,0.89616,-0.042807,0.536115,0.892465,-0.040623,0.548469,0.87355,-0.038119,1,1,0.6
1090,'2026/05/06 10:41:06:559',5,0.632278,0.790727,0,0.602404,0.72791,-0.005192,0.563063,0.673743,-0.01165,0.547115,0.622584,-0.018938,0.546496,0.579119,-0.027282,0.488014,0.720927,-0.013468,0.478646,0.788825,-0.023536,0.500781,0.797453,-0.033236,0.515422,0.783578,-0.040968,0.488284,0.764211,-0.019624,0.482406,0.836663,-0.025321,0.506353,0.83851,-0.030217,0.522666,0.819545,-0.036719,0.500479,0.807585,-0.02557,0.493518,0.869825,-0.033387,0.516119,0.867183,-0.032941,0.532098,0.847338,-0.034391,0.51724,0.846756,-0.032498,0.51511,0.896011,-0.040548,0.534592,0.893656,-0.037965,0.547858,0.875765,-0.035164,1,1,0.6
1091,'2026/05/06 10:41:06:606',5,0.630403,0.789394,0,0.602156,0.728001,-0.0049,0.563076,0.675695,-0.011889,0.546644,0.623507,-0.019902,0.546739,0.57938,-0.02947,0.488741,0.720895,-0.014897,0.477071,0.784402,-0.024447,0.498667,0.796141,-0.034304,0.513877,0.78617,-0.04233,0.488424,0.765849,-0.020845,0.480666,0.832532,-0.025695,0.502868,0.837266,-0.03034,0.519829,0.822392,-0.037074,0.500175,0.810429,-0.026345,0.492361,0.867508,-0.032723,0.513119,0.867563,-0.032312,0.529918,0.851471,-0.034269,0.516193,0.850198,-0.032797,0.514003,0.896827,-0.039747,0.532384,0.895122,-0.037325,0.54622,0.878809,-0.035001,1,1,0.6
1092,'2026/05/06 10:41:06:638',5,0.633428,0.791647,0,0.603417,0.728446,-0.004932,0.563569,0.674349,-0.011448,0.546801,0.621762,-0.018823,0.544595,0.578686,-0.02722,0.487875,0.721449,-0.013294,0.475585,0.788553,-0.023289,0.497861,0.797469,-0.033133,0.51253,0.784036,-0.040882,0.487671,0.764481,-0.019284,0.480259,0.836943,-0.024436,0.503568,0.838542,-0.029076,0.519594,0.819459,-0.035617,0.499308,0.808059,-0.025097,0.492949,0.870057,-0.031712,0.514327,0.866909,-0.031091,0.529694,0.847138,-0.032821,0.515531,0.847392,-0.031964,0.514595,0.897031,-0.039043,0.533272,0.894136,-0.036538,0.545591,0.876176,-0.033998,1,1,0.6
1093,'2026/05/06 10:41:06:670',5,0.62955,0.789346,0,0.601372,0.72886,-0.007123,0.562135,0.674806,-0.01504,0.546551,0.622697,-0.023596,0.545367,0.578499,-0.033135,0.487435,0.720718,-0.016504,0.47631,0.786797,-0.028228,0.498332,0.795061,-0.03903,0.512709,0.781177,-0.04738,0.487577,0.764467,-0.022197,0.480016,0.835918,-0.029338,0.50341,0.837349,-0.034321,0.51923,0.818512,-0.040825,0.499527,0.808321,-0.027902,0.491842,0.869729,-0.036452,0.513725,0.867083,-0.035615,0.52915,0.847246,-0.036836,0.515712,0.847411,-0.034833,0.513553,0.897195,-0.043366,0.532698,0.894344,-0.040961,0.545705,0.875894,-0.038331,1,1,0.6
1094,'2026/05/06 10:41:06:705',5,0.62952,0.79313,0,0.600008,0.730575,-0.005594,0.561585,0.675252,-0.012228,0.545564,0.624328,-0.019554,0.544141,0.580837,-0.027879,0.487345,0.721575,-0.013627,0.4756,0.788143,-0.023745,0.497719,0.797496,-0.033619,0.513346,0.784048,-0.041464,0.487997,0.765645,-0.019417,0.478884,0.836232,-0.02543,0.50258,0.839561,-0.030488,0.520554,0.822182,-0.036945,0.500218,0.8092,-0.025047,0.4904,0.869408,-0.032966,0.511817,0.869273,-0.03249,0.528806,0.852198,-0.033759,0.516667,0.847635,-0.031678,0.512276,0.89581,-0.039753,0.530347,0.895654,-0.037364,0.543782,0.879643,-0.034649,1,1,0.6
1095,'2026/05/06 10:41:06:734',5,0.631669,0.794256,0,0.601853,0.730224,-0.004709,0.562842,0.675247,-0.01121,0.546762,0.623081,-0.018496,0.5453,0.579386,-0.026812,0.486266,0.721539,-0.013417,0.476466,0.789803,-0.022328,0.49915,0.799351,-0.031355,0.514007,0.78654,-0.038803,0.485981,0.764504,-0.01948,0.480191,0.837908,-0.02376,0.504152,0.841121,-0.028296,0.520496,0.823359,-0.035024,0.497265,0.807988,-0.025171,0.491393,0.870505,-0.031501,0.51378,0.868777,-0.031057,0.529867,0.849874,-0.033054,0.512897,0.847409,-0.031849,0.512262,0.896338,-0.039032,0.532102,0.895231,-0.03653,0.545353,0.878523,-0.034061,1,1,0.6
1096,'2026/05/06 10:41:06:767',5,0.630295,0.793428,0,0.602604,0.732347,-0.00525,0.56315,0.678592,-0.011784,0.546958,0.626817,-0.01927,0.545902,0.582408,-0.028107,0.487929,0.722897,-0.012681,0.476842,0.786767,-0.022448,0.498296,0.798998,-0.032809,0.513369,0.789137,-0.04111,0.486771,0.765123,-0.018598,0.480661,0.834719,-0.023358,0.503309,0.839875,-0.028694,0.520379,0.824846,-0.035694,0.497377,0.808279,-0.024334,0.492025,0.868301,-0.030781,0.513463,0.868854,-0.030781,0.529997,0.852262,-0.032957,0.512456,0.84773,-0.031155,0.512329,0.897181,-0.038592,0.531649,0.896877,-0.036482,0.545022,0.880987,-0.034191,1,1,0.6
1097,'2026/05/06 10:41:06:801',5,0.629609,0.793878,0,0.601957,0.731779,-0.005068,0.562605,0.678209,-0.011778,0.546781,0.626694,-0.019429,0.546683,0.582835,-0.028457,0.486939,0.724687,-0.013773,0.47872,0.788938,-0.023693,0.500221,0.799774,-0.033984,0.514947,0.788585,-0.042188,0.485728,0.768147,-0.019726,0.481885,0.836984,-0.024505,0.504263,0.841463,-0.029304,0.520547,0.825816,-0.035992,0.496505,0.81172,-0.025383,0.49226,0.870313,-0.031976,0.513857,0.870045,-0.031475,0.530216,0.852791,-0.033219,0.511946,0.850862,-0.032098,0.512803,0.897957,-0.039497,0.532328,0.89704,-0.036974,0.545941,0.881077,-0.034312,1,1,0.6
1098,'2026/05/06 10:41:06:839',5,0.630781,0.793016,0,0.602955,0.731006,-0.00557,0.56341,0.676879,-0.012801,0.547899,0.62529,-0.020991,0.546929,0.582332,-0.030576,0.486985,0.72282,-0.014318,0.478079,0.78934,-0.025576,0.500305,0.800235,-0.037251,0.515532,0.788452,-0.046298,0.486153,0.766693,-0.020414,0.481309,0.837493,-0.026264,0.504678,0.842144,-0.031708,0.521432,0.825889,-0.038825,0.497359,0.810477,-0.026371,0.491903,0.870408,-0.033892,0.513693,0.870687,-0.033455,0.530099,0.853239,-0.03512,0.512951,0.849593,-0.033469,0.513051,0.897298,-0.041409,0.532821,0.896653,-0.038804,0.546267,0.880079,-0.036053,1,1,0.6
1099,'2026/05/06 10:41:06:879',5,0.628224,0.789671,0,0.602595,0.730067,-0.006804,0.563414,0.677297,-0.014726,0.548131,0.625127,-0.023522,0.547313,0.581999,-0.033738,0.488312,0.722998,-0.016033,0.477254,0.789471,-0.02799,0.498213,0.799914,-0.039729,0.512551,0.788124,-0.048637,0.488048,0.767042,-0.02171,0.480387,0.837266,-0.028486,0.502322,0.841092,-0.033705,0.518406,0.823993,-0.040511,0.499011,0.810917,-0.027412,0.491546,0.870365,-0.035463,0.512744,0.869349,-0.034669,0.528855,0.850745,-0.036043,0.514069,0.850333,-0.034375,0.513149,0.897971,-0.042412,0.53293,0.89583,-0.039747,0.5468,0.878034,-0.037048,1,1,0.6
1100,'2026/05/06 10:41:06:917',5,0.631767,0.789885,0,0.602151,0.729568,-0.005377,0.56291,0.678702,-0.013122,0.547543,0.625252,-0.022129,0.546805,0.579787,-0.032632,0.489673,0.722969,-0.013907,0.47697,0.788161,-0.02526,0.497793,0.798521,-0.036588,0.511957,0.787201,-0.045315,0.489477,0.766326,-0.020133,0.480647,0.837001,-0.026537,0.502176,0.840686,-0.031775,0.518017,0.823225,-0.038516,0.500746,0.810755,-0.026328,0.492531,0.870664,-0.033695,0.513313,0.869514,-0.03315,0.528918,0.850445,-0.034757,0.516654,0.85113,-0.033666,0.515747,0.898876,-0.041076,0.534989,0.89563,-0.038734,0.548161,0.877151,-0.036276,1,1,0.6
1101,'2026/05/06 10:41:06:955',5,0.631767,0.789885,0,0.602151,0.729568,-0.005377,0.56291,0.678702,-0.013122,0.547543,0.625252,-0.022129,0.546805,0.579787,-0.032632,0.489673,0.722969,-0.013907,0.47697,0.788161,-0.02526,0.497793,0.798521,-0.036588,0.511957,0.787201,-0.045315,0.489477,0.766326,-0.020133,0.480647,0.837001,-0.026537,0.502176,0.840686,-0.031775,0.518017,0.823225,-0.038516,0.500746,0.810755,-0.026328,0.492531,0.870664,-0.033695,0.513313,0.869514,-0.03315,0.528918,0.850445,-0.034757,0.516654,0.85113,-0.033666,0.515747,0.898876,-0.041076,0.534989,0.89563,-0.038734,0.548161,0.877151,-0.036276,1,1,0.6
1102,'2026/05/06 10:41:07:003',5,0.628962,0.793593,0,0.600547,0.732075,-0.006228,0.562065,0.676373,-0.013576,0.547012,0.623397,-0.021537,0.546585,0.579598,-0.03065,0.487477,0.721831,-0.016185,0.477291,0.785473,-0.026742,0.498683,0.796292,-0.036982,0.512874,0.7851,-0.045185,0.48747,0.765482,-0.021985,0.480316,0.835526,-0.027799,0.50313,0.839808,-0.032592,0.519503,0.823312,-0.039308,0.499142,0.809097,-0.027573,0.491577,0.869326,-0.035421,0.513186,0.868854,-0.034876,0.529532,0.850972,-0.036465,0.514975,0.848035,-0.034233,0.512782,0.896476,-0.042365,0.531395,0.895729,-0.039924,0.544705,0.878685,-0.037409,1,1,0.6
1103,'2026/05/06 10:41:07:033',5,0.629427,0.793086,0,0.602232,0.730653,-0.006938,0.563573,0.675119,-0.014249,0.548341,0.622642,-0.022097,0.547393,0.578978,-0.031027,0.487068,0.720317,-0.015218,0.478111,0.78582,-0.026197,0.500671,0.795314,-0.037066,0.515472,0.782442,-0.045612,0.486493,0.764209,-0.020673,0.480766,0.834494,-0.026877,0.504732,0.837988,-0.032189,0.521055,0.820873,-0.0391,0.497681,0.808064,-0.026075,0.49156,0.868086,-0.034281,0.514072,0.867055,-0.033742,0.530307,0.848674,-0.035151,0.513115,0.847103,-0.032667,0.512373,0.895305,-0.041172,0.532483,0.8938,-0.038631,0.546134,0.876247,-0.035828,1,1,0.6
1104,'2026/05/06 10:41:07:058',5,0.630721,0.79334,0,0.603632,0.732925,-0.00743,0.564535,0.675746,-0.014577,0.548383,0.622023,-0.022247,0.546402,0.578119,-0.030854,0.48669,0.719876,-0.013746,0.478568,0.787502,-0.025201,0.50153,0.795654,-0.037098,0.516052,0.781075,-0.046256,0.486396,0.762912,-0.019125,0.481591,0.836835,-0.025365,0.505388,0.838335,-0.031401,0.520989,0.818965,-0.038867,0.497529,0.806506,-0.024713,0.492523,0.869752,-0.033159,0.515057,0.866524,-0.0333,0.530794,0.845644,-0.035146,0.5128,0.845779,-0.031607,0.513291,0.896443,-0.039999,0.533799,0.893652,-0.037663,0.547469,0.874511,-0.03508,1,1,0.6
1105,'2026/05/06 10:41:07:091',5,0.627886,0.788804,0,0.600336,0.728811,-0.006088,0.562349,0.677784,-0.014129,0.547309,0.625329,-0.023019,0.547181,0.580653,-0.033311,0.488674,0.722263,-0.016297,0.476638,0.785817,-0.02751,0.497272,0.796243,-0.038332,0.511219,0.78509,-0.046782,0.487835,0.765733,-0.021985,0.47999,0.834373,-0.028042,0.501724,0.838235,-0.032817,0.517444,0.821815,-0.039408,0.498528,0.809485,-0.02746,0.491747,0.868629,-0.03449,0.512463,0.867572,-0.033759,0.5277,0.849355,-0.035447,0.513756,0.848876,-0.034084,0.513156,0.897478,-0.041555,0.532132,0.894981,-0.039227,0.545069,0.877405,-0.036888,1,1,0.6
1106,'2026/05/06 10:41:07:122',5,0.628003,0.793768,0,0.600308,0.729326,-0.005924,0.563055,0.674129,-0.012077,0.547325,0.623222,-0.019038,0.546041,0.580663,-0.027149,0.487531,0.720174,-0.011815,0.477089,0.784369,-0.021802,0.498935,0.795113,-0.032396,0.513902,0.783677,-0.04083,0.486538,0.763035,-0.01731,0.479473,0.83273,-0.022999,0.502276,0.83738,-0.029009,0.519405,0.821566,-0.036268,0.497195,0.806332,-0.022822,0.489272,0.866032,-0.030937,0.51029,0.866658,-0.031899,0.527423,0.850427,-0.034142,0.512497,0.845163,-0.029373,0.510559,0.894237,-0.038163,0.528813,0.895148,-0.036878,0.542529,0.879991,-0.034891,1,1,0.6
1107,'2026/05/06 10:41:07:156',5,0.630202,0.794639,0,0.601644,0.730247,-0.005732,0.563555,0.674649,-0.012188,0.547921,0.622084,-0.019211,0.547764,0.579268,-0.027483,0.487413,0.720673,-0.014049,0.477538,0.785733,-0.022697,0.498693,0.797405,-0.032093,0.513066,0.787347,-0.039882,0.487326,0.764776,-0.019188,0.479989,0.83472,-0.023688,0.502293,0.840092,-0.02894,0.519509,0.825486,-0.036107,0.498583,0.807994,-0.023917,0.490506,0.866927,-0.030734,0.510572,0.868065,-0.031375,0.527825,0.853397,-0.033786,0.513975,0.846084,-0.029592,0.510902,0.892683,-0.03692,0.5281,0.893987,-0.034964,0.541819,0.879968,-0.032845,1,1,0.6
1108,'2026/05/06 10:41:07:195',5,0.628195,0.794007,0,0.599768,0.730041,-0.00626,0.56333,0.67395,-0.013296,0.548009,0.621489,-0.020908,0.545689,0.578282,-0.02973,0.486834,0.720184,-0.01456,0.477223,0.785942,-0.023855,0.499483,0.797144,-0.033682,0.514585,0.786167,-0.041716,0.4864,0.76319,-0.020001,0.479668,0.834107,-0.024679,0.502671,0.83929,-0.030198,0.520137,0.823536,-0.037752,0.497337,0.806569,-0.02514,0.489463,0.866399,-0.032494,0.510653,0.867797,-0.033043,0.528572,0.851856,-0.035505,0.512493,0.845678,-0.031284,0.509691,0.894173,-0.039337,0.527828,0.896303,-0.037328,0.542039,0.88193,-0.035163,1,1,0.6
1109,'2026/05/06 10:41:07:229',5,0.628816,0.793299,0,0.602758,0.731126,-0.005836,0.564,0.674849,-0.01263,0.548152,0.622608,-0.020131,0.54836,0.579084,-0.029049,0.488003,0.718522,-0.014904,0.478698,0.780308,-0.025422,0.499643,0.792426,-0.036168,0.514576,0.783178,-0.044637,0.486646,0.763457,-0.02053,0.480707,0.830998,-0.025979,0.503106,0.836837,-0.03109,0.520058,0.822444,-0.037887,0.497359,0.808441,-0.025908,0.490773,0.865785,-0.033444,0.511756,0.866592,-0.033123,0.52843,0.850231,-0.03472,0.51249,0.848458,-0.032309,0.511556,0.895488,-0.040279,0.530456,0.895769,-0.037762,0.544119,0.880126,-0.035028,1,1,0.6
1110,'2026/05/06 10:41:07:261',5,0.630725,0.7939,0,0.602269,0.730881,-0.004973,0.564042,0.675566,-0.011223,0.547957,0.623055,-0.018386,0.54788,0.58001,-0.026799,0.487624,0.719921,-0.012238,0.477205,0.783281,-0.021702,0.498771,0.794322,-0.031975,0.513228,0.783765,-0.040257,0.486401,0.763124,-0.018071,0.480044,0.83414,-0.022831,0.50321,0.838402,-0.028056,0.51971,0.82219,-0.035086,0.497146,0.806954,-0.023696,0.490593,0.867872,-0.030502,0.51215,0.867205,-0.030547,0.528704,0.84976,-0.0326,0.512437,0.846534,-0.030341,0.511372,0.895381,-0.03774,0.530595,0.894131,-0.035462,0.544244,0.877266,-0.033022,1,1,0.6
1111,'2026/05/06 10:41:07:307',5,0.625591,0.79425,0,0.600265,0.73085,-0.007841,0.563851,0.674814,-0.014732,0.548276,0.624545,-0.022135,0.546493,0.581818,-0.03064,0.487312,0.721829,-0.013462,0.478819,0.785034,-0.024501,0.50113,0.795268,-0.035857,0.516373,0.78358,-0.044769,0.486002,0.76406,-0.018435,0.481268,0.834426,-0.025128,0.504645,0.838358,-0.031916,0.521888,0.822259,-0.039562,0.496455,0.806814,-0.023621,0.490947,0.867766,-0.032935,0.512043,0.868653,-0.034561,0.528926,0.852681,-0.037051,0.511328,0.845376,-0.030028,0.511164,0.896469,-0.040169,0.529542,0.898691,-0.039684,0.543077,0.884641,-0.038057,1,1,0.6
1112,'2026/05/06 10:41:07:345',5,0.627867,0.795294,0,0.601081,0.731057,-0.006301,0.563562,0.675522,-0.012871,0.547857,0.624021,-0.020043,0.546932,0.580767,-0.02875,0.487148,0.721101,-0.014333,0.479006,0.783379,-0.02358,0.499922,0.796155,-0.034094,0.514779,0.787685,-0.042685,0.485516,0.765369,-0.019418,0.480545,0.832623,-0.024334,0.502834,0.839265,-0.030865,0.521262,0.826821,-0.038852,0.496016,0.809194,-0.024137,0.490717,0.866208,-0.031608,0.510673,0.868418,-0.033773,0.528964,0.855228,-0.037147,0.511258,0.848333,-0.029801,0.510869,0.894145,-0.03818,0.528567,0.896067,-0.037432,0.543136,0.883015,-0.036066,1,1,0.6
1113,'2026/05/06 10:41:07:391',5,0.627867,0.795294,0,0.601081,0.731057,-0.006301,0.563562,0.675522,-0.012871,0.547857,0.624021,-0.020043,0.546932,0.580767,-0.02875,0.487148,0.721101,-0.014333,0.479006,0.783379,-0.02358,0.499922,0.796155,-0.034094,0.514779,0.787685,-0.042685,0.485516,0.765369,-0.019418,0.480545,0.832623,-0.024334,0.502834,0.839265,-0.030865,0.521262,0.826821,-0.038852,0.496016,0.809194,-0.024137,0.490717,0.866208,-0.031608,0.510673,0.868418,-0.033773,0.528964,0.855228,-0.037147,0.511258,0.848333,-0.029801,0.510869,0.894145,-0.03818,0.528567,0.896067,-0.037432,0.543136,0.883015,-0.036066,1,1,0.6
1114,'2026/05/06 10:41:07:432',5,0.62732,0.796148,0,0.600784,0.733443,-0.006734,0.563886,0.676177,-0.01419,0.549037,0.623454,-0.022125,0.546494,0.57963,-0.031231,0.487098,0.720461,-0.015937,0.478268,0.783689,-0.026469,0.499609,0.795075,-0.037239,0.514076,0.784623,-0.045819,0.485391,0.763904,-0.021409,0.480967,0.8324,-0.026838,0.504457,0.837129,-0.032226,0.521342,0.82113,-0.039487,0.495618,0.80811,-0.026649,0.490941,0.866352,-0.034328,0.513191,0.866184,-0.033868,0.530222,0.848482,-0.035573,0.510207,0.847983,-0.033013,0.510395,0.8951,-0.041241,0.530267,0.895228,-0.038525,0.544499,0.879328,-0.035704,1,1,0.6
1115,'2026/05/06 10:41:07:467',5,0.627382,0.792793,0,0.600605,0.732003,-0.006642,0.562797,0.678658,-0.014697,0.548169,0.625882,-0.023404,0.547894,0.58223,-0.033377,0.486855,0.721359,-0.01719,0.475733,0.787165,-0.028153,0.497213,0.797543,-0.038967,0.511324,0.785943,-0.047527,0.48593,0.765158,-0.02274,0.478975,0.836774,-0.028539,0.501713,0.83997,-0.033476,0.517535,0.822629,-0.040458,0.496508,0.809103,-0.028022,0.490522,0.870123,-0.035389,0.512141,0.867642,-0.034929,0.527911,0.848089,-0.036857,0.51111,0.848641,-0.03446,0.511212,0.897548,-0.042528,0.531288,0.894355,-0.040171,0.545194,0.875756,-0.037712,1,1,0.6
1116,'2026/05/06 10:41:07:504',5,0.627754,0.795458,0,0.601099,0.733705,-0.0072,0.562498,0.676451,-0.01437,0.547385,0.623838,-0.021736,0.546978,0.58128,-0.030096,0.485695,0.722174,-0.016972,0.47616,0.786548,-0.027196,0.49815,0.797031,-0.03711,0.512832,0.785276,-0.045068,0.485579,0.765957,-0.022083,0.479167,0.83687,-0.027636,0.502932,0.840795,-0.03231,0.519659,0.823738,-0.038854,0.496931,0.80935,-0.026978,0.490657,0.870041,-0.034721,0.512663,0.868721,-0.034188,0.529137,0.850203,-0.035684,0.512421,0.84798,-0.033011,0.511114,0.896539,-0.041162,0.530359,0.89588,-0.038579,0.544053,0.879127,-0.035807,1,1,0.6
1117,'2026/05/06 10:41:07:540',5,0.627424,0.796055,0,0.600668,0.732347,-0.005947,0.562402,0.676211,-0.012175,0.547049,0.624941,-0.019118,0.546106,0.582331,-0.02734,0.48586,0.722586,-0.012517,0.477791,0.787118,-0.022768,0.500014,0.797819,-0.034075,0.515408,0.786776,-0.04298,0.484649,0.765593,-0.017866,0.480292,0.83519,-0.023022,0.503358,0.839516,-0.029288,0.52089,0.824116,-0.036916,0.495022,0.808934,-0.023112,0.490441,0.868663,-0.030684,0.511884,0.868657,-0.031865,0.529267,0.852233,-0.034456,0.509797,0.848014,-0.029427,0.510896,0.896618,-0.037888,0.530039,0.896363,-0.036513,0.543991,0.880392,-0.034529,1,1,0.6
1118,'2026/05/06 10:41:07:571',5,0.627901,0.796099,0,0.601719,0.734767,-0.007532,0.563406,0.677704,-0.015152,0.548145,0.623985,-0.023117,0.546816,0.580482,-0.03233,0.48621,0.722458,-0.016771,0.476402,0.787103,-0.028004,0.49834,0.797948,-0.03933,0.513105,0.786964,-0.048198,0.485428,0.766172,-0.022032,0.479234,0.836357,-0.02821,0.502609,0.840639,-0.03382,0.519511,0.824433,-0.041105,0.496216,0.809948,-0.027208,0.489922,0.869884,-0.035497,0.511766,0.869561,-0.035372,0.528785,0.851929,-0.037145,0.511347,0.849341,-0.033583,0.510173,0.898715,-0.042305,0.529449,0.898065,-0.04004,0.543407,0.880895,-0.037466,1,1,0.6
1119,'2026/05/06 10:41:07:613',5,0.627691,0.793598,0,0.600237,0.731119,-0.005526,0.562945,0.677969,-0.012411,0.547264,0.626898,-0.020175,0.546317,0.584303,-0.029418,0.486024,0.722146,-0.013593,0.476345,0.785634,-0.023176,0.497546,0.798549,-0.033387,0.512342,0.789772,-0.041678,0.484727,0.764861,-0.019205,0.478193,0.8344,-0.024113,0.501248,0.841026,-0.029394,0.518633,0.826694,-0.036467,0.495239,0.807978,-0.024528,0.488415,0.868341,-0.031421,0.510559,0.86935,-0.031506,0.528108,0.852928,-0.033665,0.510256,0.847084,-0.030876,0.509471,0.896594,-0.038779,0.529116,0.89705,-0.036741,0.543231,0.881482,-0.034467,1,1,0.6
1120,'2026/05/06 10:41:07:651',5,0.628123,0.792094,0,0.600519,0.732408,-0.005797,0.562044,0.678558,-0.012991,0.546526,0.626306,-0.021115,0.546276,0.583285,-0.030633,0.487685,0.723466,-0.01412,0.475208,0.786653,-0.024733,0.495447,0.797708,-0.035702,0.509121,0.787118,-0.044363,0.487188,0.765594,-0.019863,0.478286,0.835963,-0.025406,0.500192,0.840273,-0.030463,0.515887,0.823903,-0.037315,0.498183,0.808459,-0.025492,0.489269,0.869886,-0.032307,0.510148,0.869414,-0.031958,0.525699,0.851204,-0.033929,0.51326,0.847512,-0.032267,0.510728,0.898566,-0.039679,0.529635,0.896697,-0.037508,0.542728,0.878856,-0.035309,1,1,0.6
1121,'2026/05/06 10:41:07:683',5,0.628103,0.79374,0,0.601425,0.733003,-0.005734,0.563024,0.679082,-0.012851,0.546353,0.626953,-0.02077,0.545384,0.584223,-0.030228,0.486949,0.722979,-0.015315,0.476065,0.785378,-0.025658,0.496407,0.798444,-0.036425,0.510631,0.790322,-0.044959,0.486131,0.766995,-0.020825,0.47883,0.835095,-0.026136,0.50064,0.841499,-0.031136,0.517433,0.827974,-0.037967,0.49718,0.810759,-0.026031,0.490233,0.869381,-0.03287,0.510415,0.870728,-0.032747,0.526737,0.85558,-0.034775,0.512441,0.849797,-0.032291,0.511233,0.89791,-0.039884,0.529124,0.898012,-0.037917,0.541999,0.882592,-0.03576,1,1,0.6
1122,'2026/05/06 10:41:07:715',5,0.630174,0.794875,0,0.601851,0.733674,-0.004159,0.562964,0.68003,-0.010426,0.547351,0.62762,-0.017861,0.546214,0.584708,-0.026879,0.4869,0.721079,-0.012202,0.475543,0.78626,-0.021985,0.496944,0.799502,-0.032609,0.511964,0.790205,-0.04114,0.485361,0.763937,-0.018537,0.477778,0.83612,-0.02317,0.50107,0.842789,-0.028356,0.518373,0.827673,-0.035461,0.495762,0.808076,-0.024577,0.488287,0.870289,-0.030955,0.510217,0.871582,-0.030635,0.527187,0.854793,-0.032716,0.510841,0.848088,-0.031602,0.509486,0.898351,-0.038949,0.529224,0.898576,-0.036469,0.543073,0.882344,-0.034012,1,1,0.6
1123,'2026/05/06 10:41:07:747',5,0.626682,0.796291,0,0.599948,0.734246,-0.007221,0.562077,0.678449,-0.014874,0.546431,0.627067,-0.022957,0.545101,0.583643,-0.032193,0.485925,0.723367,-0.017177,0.47666,0.786178,-0.028397,0.498085,0.797633,-0.039065,0.512384,0.786946,-0.047531,0.484886,0.767266,-0.022541,0.478568,0.83649,-0.029179,0.501906,0.841526,-0.034262,0.518623,0.825552,-0.041041,0.495916,0.811185,-0.027756,0.488966,0.871044,-0.036556,0.511095,0.871248,-0.035981,0.528005,0.853886,-0.037329,0.511442,0.850251,-0.034098,0.509776,0.898769,-0.043168,0.529275,0.898408,-0.040833,0.543313,0.881786,-0.03817,1,1,0.6
1124,'2026/05/06 10:41:07:808',5,0.626735,0.796585,0,0.599837,0.735713,-0.006768,0.562293,0.680181,-0.013797,0.546475,0.627759,-0.021384,0.543839,0.585104,-0.030293,0.485498,0.722761,-0.014838,0.477398,0.786463,-0.025131,0.498472,0.79851,-0.036063,0.512868,0.788855,-0.044827,0.484559,0.765878,-0.020242,0.478907,0.836328,-0.025742,0.501892,0.842257,-0.031744,0.518924,0.827159,-0.039442,0.495381,0.809743,-0.025465,0.488515,0.8707,-0.03355,0.510333,0.871745,-0.034057,0.52793,0.854822,-0.036311,0.510382,0.849386,-0.03176,0.508795,0.898944,-0.040217,0.52788,0.899556,-0.038145,0.542099,0.883109,-0.035855,1,1,0.6
1125,'2026/05/06 10:41:07:839',5,0.626518,0.79216,0,0.597971,0.731185,-0.00639,0.560019,0.679985,-0.014233,0.544746,0.628138,-0.023052,0.544296,0.584203,-0.033172,0.486675,0.727529,-0.014426,0.474708,0.792453,-0.026172,0.495561,0.80057,-0.037916,0.509122,0.787306,-0.046899,0.486797,0.770803,-0.020136,0.478142,0.840042,-0.026851,0.499939,0.841246,-0.032202,0.515155,0.822906,-0.039007,0.498101,0.814094,-0.025942,0.48941,0.873417,-0.033822,0.510389,0.870512,-0.03335,0.525563,0.851067,-0.034859,0.513566,0.853122,-0.032957,0.511093,0.901004,-0.040579,0.530264,0.896533,-0.038166,0.543466,0.877462,-0.035709,1,1,0.6
1126,'2026/05/06 10:41:07:870',5,0.626203,0.794015,0,0.599865,0.733662,-0.004851,0.560619,0.680621,-0.011378,0.545306,0.629594,-0.019004,0.54455,0.586127,-0.027999,0.486229,0.725569,-0.01171,0.475336,0.790697,-0.022497,0.497135,0.800449,-0.033877,0.512031,0.787636,-0.042718,0.485688,0.768535,-0.017968,0.478028,0.837744,-0.023499,0.501269,0.841419,-0.028734,0.518076,0.824813,-0.035436,0.496413,0.812199,-0.02424,0.48898,0.871865,-0.031304,0.511151,0.871282,-0.030658,0.527128,0.853443,-0.032156,0.511307,0.851818,-0.031607,0.510349,0.899711,-0.039172,0.530849,0.897913,-0.03656,0.544219,0.880748,-0.033875,1,1,0.6
1127,'2026/05/06 10:41:07:902',5,0.629267,0.797199,0,0.601236,0.735733,-0.005942,0.56224,0.68049,-0.012867,0.545634,0.628592,-0.020426,0.544014,0.585454,-0.029113,0.485652,0.72399,-0.015151,0.475723,0.789677,-0.025199,0.497608,0.800018,-0.034974,0.512039,0.788635,-0.042819,0.485047,0.766885,-0.020962,0.478188,0.83847,-0.026653,0.502001,0.842623,-0.031665,0.518519,0.826313,-0.038424,0.496343,0.8102,-0.026485,0.48898,0.87189,-0.034101,0.511401,0.870948,-0.033701,0.528082,0.852836,-0.035373,0.512081,0.849263,-0.033062,0.510268,0.898934,-0.041142,0.529944,0.898016,-0.038797,0.543765,0.881189,-0.036257,1,1,0.6
1128,'2026/05/06 10:41:07:935',5,0.626232,0.796471,0,0.599492,0.734366,-0.007119,0.562073,0.679682,-0.014816,0.546149,0.628375,-0.023098,0.544449,0.584269,-0.032533,0.486147,0.724101,-0.015279,0.477002,0.787957,-0.026768,0.498425,0.797825,-0.038301,0.51262,0.786001,-0.047279,0.485341,0.768224,-0.020788,0.478785,0.836982,-0.027459,0.501436,0.841178,-0.033164,0.517593,0.824929,-0.040308,0.496205,0.812574,-0.026295,0.488554,0.870813,-0.035113,0.510044,0.870821,-0.034778,0.526369,0.853179,-0.036195,0.511303,0.851877,-0.032954,0.509984,0.899273,-0.041843,0.529869,0.898281,-0.039361,0.543914,0.881077,-0.03657,1,1,0.6
1129,'2026/05/06 10:41:07:967',5,0.62654,0.79462,0,0.599499,0.734114,-0.006009,0.56139,0.680705,-0.013418,0.545536,0.629153,-0.021742,0.545573,0.58572,-0.031427,0.486835,0.724817,-0.014593,0.47517,0.786839,-0.025564,0.49619,0.797985,-0.036552,0.510766,0.787619,-0.045187,0.485987,0.768252,-0.020383,0.477882,0.835868,-0.026848,0.500186,0.840854,-0.032289,0.516753,0.825742,-0.03911,0.496874,0.811752,-0.026055,0.489179,0.870176,-0.033942,0.509932,0.871002,-0.033864,0.526249,0.854827,-0.035623,0.512028,0.850482,-0.032835,0.510861,0.899273,-0.041241,0.529433,0.898575,-0.039493,0.542673,0.882129,-0.03731,1,1,0.6
1130,'2026/05/06 10:41:07:999',5,0.625993,0.797903,0,0.600576,0.736053,-0.00873,0.562892,0.680074,-0.016596,0.546555,0.628525,-0.024605,0.544804,0.585104,-0.033518,0.485327,0.722952,-0.017106,0.478476,0.789742,-0.029136,0.500362,0.80019,-0.040531,0.514331,0.787549,-0.049381,0.484455,0.766706,-0.022025,0.480988,0.838622,-0.029569,0.504918,0.842367,-0.035498,0.520789,0.824647,-0.042577,0.494915,0.811181,-0.027042,0.490589,0.872823,-0.037436,0.51337,0.871194,-0.037514,0.529549,0.851399,-0.038811,0.509468,0.851471,-0.033261,0.510161,0.899898,-0.043514,0.53055,0.898391,-0.041419,0.544542,0.880461,-0.038581,1,1,0.6
1131,'2026/05/06 10:41:08:029',5,0.627517,0.793677,0,0.600163,0.734446,-0.006049,0.56137,0.680604,-0.013193,0.545695,0.628145,-0.021036,0.544159,0.586014,-0.030162,0.485548,0.726032,-0.015672,0.473988,0.792606,-0.025907,0.495564,0.801378,-0.036086,0.509708,0.788346,-0.044124,0.485224,0.768975,-0.021323,0.478378,0.842037,-0.026616,0.501074,0.843852,-0.03147,0.516599,0.825115,-0.038228,0.496258,0.812701,-0.0267,0.489798,0.875506,-0.033567,0.511415,0.872228,-0.033051,0.526764,0.851556,-0.034883,0.511262,0.853026,-0.033213,0.51066,0.903268,-0.040823,0.530663,0.899469,-0.038354,0.543977,0.880129,-0.035835,1,1,0.6
1132,'2026/05/06 10:41:08:083',5,0.626784,0.795676,0,0.599886,0.735354,-0.007592,0.561679,0.680925,-0.015726,0.546431,0.628227,-0.024256,0.545116,0.585334,-0.033993,0.485864,0.725124,-0.017488,0.476539,0.791864,-0.028846,0.498413,0.801866,-0.039886,0.51285,0.78984,-0.048531,0.485401,0.769383,-0.022697,0.478676,0.840474,-0.029246,0.502209,0.844038,-0.034472,0.518703,0.82731,-0.041329,0.496204,0.813312,-0.027768,0.488921,0.873379,-0.036227,0.511285,0.871776,-0.035714,0.527645,0.853304,-0.037138,0.511105,0.852507,-0.034019,0.509907,0.89966,-0.042636,0.530059,0.897755,-0.04007,0.543922,0.880388,-0.037274,1,1,0.6
1133,'2026/05/06 10:41:08:121',5,0.63058,0.796458,0,0.601922,0.735217,-0.004317,0.561745,0.680772,-0.01055,0.545712,0.628784,-0.017864,0.546114,0.586004,-0.026491,0.486726,0.72545,-0.012728,0.475239,0.790087,-0.023084,0.497055,0.79966,-0.033856,0.511897,0.787568,-0.042328,0.485727,0.768407,-0.018927,0.478938,0.839549,-0.024298,0.50203,0.842298,-0.029201,0.518046,0.824519,-0.035771,0.496657,0.811958,-0.024879,0.490395,0.873214,-0.031551,0.51203,0.871051,-0.031117,0.527298,0.851511,-0.032932,0.511972,0.851214,-0.031864,0.51232,0.900774,-0.039388,0.532521,0.897164,-0.037168,0.545645,0.877953,-0.03475,1,1,0.6
1134,'2026/05/06 10:41:08:152',5,0.63058,0.796458,0,0.601922,0.735217,-0.004317,0.561745,0.680772,-0.01055,0.545712,0.628784,-0.017864,0.546114,0.586004,-0.026491,0.486726,0.72545,-0.012728,0.475239,0.790087,-0.023084,0.497055,0.79966,-0.033856,0.511897,0.787568,-0.042328,0.485727,0.768407,-0.018927,0.478938,0.839549,-0.024298,0.50203,0.842298,-0.029201,0.518046,0.824519,-0.035771,0.496657,0.811958,-0.024879,0.490395,0.873214,-0.031551,0.51203,0.871051,-0.031117,0.527298,0.851511,-0.032932,0.511972,0.851214,-0.031864,0.51232,0.900774,-0.039388,0.532521,0.897164,-0.037168,0.545645,0.877953,-0.03475,1,1,0.6
1135,'2026/05/06 10:41:08:184',5,0.628378,0.795966,0,0.601836,0.734788,-0.005769,0.562496,0.681723,-0.012695,0.545276,0.630591,-0.020538,0.544523,0.587045,-0.029625,0.486756,0.726973,-0.013778,0.474806,0.788519,-0.025267,0.495653,0.797618,-0.03675,0.510107,0.785425,-0.045569,0.485756,0.770341,-0.019457,0.477737,0.837677,-0.0261,0.499993,0.840719,-0.031378,0.51585,0.823573,-0.037906,0.49669,0.813866,-0.025116,0.489089,0.872293,-0.033251,0.510535,0.870408,-0.032806,0.526228,0.851362,-0.034159,0.512002,0.852945,-0.031877,0.511296,0.901191,-0.04024,0.531238,0.89721,-0.03812,0.544842,0.877862,-0.035591,1,1,0.6
1136,'2026/05/06 10:41:08:214',5,0.629578,0.794798,0,0.60175,0.735551,-0.006097,0.561393,0.682726,-0.013663,0.545494,0.629995,-0.022201,0.544899,0.58617,-0.031853,0.487342,0.727567,-0.014259,0.474396,0.79418,-0.026687,0.49559,0.802084,-0.038637,0.509571,0.787295,-0.047626,0.487535,0.770768,-0.020383,0.477634,0.841747,-0.028079,0.500004,0.84292,-0.033422,0.51545,0.823384,-0.03987,0.49881,0.814121,-0.02666,0.489295,0.874726,-0.035382,0.510813,0.871955,-0.034485,0.52599,0.851481,-0.035434,0.514327,0.852904,-0.034141,0.511667,0.901506,-0.042304,0.531568,0.897339,-0.039703,0.545072,0.877457,-0.036902,1,1,0.6
1137,'2026/05/06 10:41:08:244',5,0.628723,0.7967,0,0.600826,0.734921,-0.006287,0.560959,0.681999,-0.01348,0.545308,0.630334,-0.021382,0.54469,0.587061,-0.030521,0.486394,0.727328,-0.014925,0.475249,0.794049,-0.026226,0.496616,0.803871,-0.037177,0.510825,0.791172,-0.045631,0.486694,0.770771,-0.020423,0.478484,0.842539,-0.027015,0.50166,0.845752,-0.032012,0.518081,0.828173,-0.038384,0.498413,0.814243,-0.025881,0.49,0.875462,-0.03406,0.511851,0.87377,-0.033455,0.527747,0.855097,-0.034631,0.514372,0.853408,-0.032445,0.512171,0.901628,-0.040769,0.53171,0.898596,-0.038407,0.545014,0.880337,-0.035635,1,1,0.6
1138,'2026/05/06 10:41:08:277',5,0.628108,0.799685,0,0.600318,0.738342,-0.005346,0.562086,0.682305,-0.011987,0.546521,0.630448,-0.019254,0.545036,0.587185,-0.027592,0.484901,0.725686,-0.01413,0.476959,0.789698,-0.023959,0.498863,0.798902,-0.034102,0.513273,0.78646,-0.042261,0.484223,0.769388,-0.020153,0.478876,0.839091,-0.02479,0.502547,0.842593,-0.029453,0.518549,0.825317,-0.03619,0.495499,0.813469,-0.025877,0.489053,0.873269,-0.033052,0.511665,0.871661,-0.032342,0.527764,0.852351,-0.033881,0.510974,0.853176,-0.032581,0.510251,0.900855,-0.040399,0.531045,0.898779,-0.037384,0.545138,0.880823,-0.034346,1,1,0.6
1139,'2026/05/06 10:41:08:306',5,0.627374,0.799242,0,0.601216,0.736981,-0.006983,0.562352,0.680789,-0.014193,0.54643,0.628946,-0.022135,0.54528,0.585418,-0.031348,0.487696,0.725542,-0.014547,0.476489,0.787801,-0.026332,0.497894,0.799263,-0.038161,0.51294,0.788637,-0.047178,0.486097,0.769808,-0.019973,0.478935,0.837423,-0.026954,0.501959,0.842368,-0.032868,0.518929,0.826796,-0.039875,0.49622,0.814357,-0.025478,0.488771,0.871409,-0.034612,0.510895,0.871969,-0.034551,0.528303,0.854969,-0.035855,0.51074,0.85412,-0.032134,0.509724,0.899992,-0.041361,0.529924,0.899772,-0.039209,0.544722,0.883529,-0.036397,1,1,0.6
1140,'2026/05/06 10:41:08:338',5,0.627966,0.797147,0,0.601792,0.735828,-0.006293,0.563007,0.681677,-0.013779,0.546713,0.630661,-0.022021,0.545629,0.586673,-0.031538,0.487727,0.725066,-0.015704,0.477083,0.786742,-0.02733,0.498474,0.796636,-0.038339,0.513105,0.784946,-0.046892,0.486254,0.768725,-0.021555,0.478555,0.836922,-0.028456,0.501733,0.840886,-0.033478,0.518311,0.824683,-0.039883,0.496748,0.813404,-0.027335,0.488452,0.87206,-0.036129,0.511,0.871574,-0.035335,0.527609,0.853743,-0.036366,0.511949,0.85399,-0.034197,0.510889,0.901785,-0.043349,0.531543,0.899641,-0.041117,0.545609,0.882328,-0.038367,1,1,0.6
1141,'2026/05/06 10:41:08:376',5,0.629115,0.801789,0,0.602573,0.738045,-0.004819,0.563607,0.680806,-0.010043,0.546584,0.629512,-0.015928,0.544253,0.586815,-0.023144,0.485289,0.725509,-0.01193,0.477518,0.788997,-0.020284,0.498989,0.801645,-0.02989,0.514117,0.792757,-0.037844,0.483518,0.768947,-0.017509,0.479665,0.838063,-0.021089,0.502787,0.844301,-0.026603,0.520644,0.830361,-0.03394,0.494133,0.813059,-0.02269,0.489302,0.872489,-0.029158,0.510738,0.873988,-0.029975,0.528395,0.85853,-0.032574,0.509572,0.853294,-0.028753,0.509591,0.900994,-0.03631,0.528628,0.901596,-0.034354,0.542737,0.885997,-0.032134,1,1,0.6
1142,'2026/05/06 10:41:08:400',5,0.626938,0.796083,0,0.599987,0.73423,-0.007139,0.561628,0.680942,-0.014724,0.545595,0.630886,-0.023037,0.544824,0.587438,-0.03239,0.486649,0.726818,-0.014685,0.476132,0.792201,-0.026447,0.497976,0.80201,-0.037439,0.512754,0.789345,-0.04588,0.486146,0.769659,-0.020277,0.478891,0.840779,-0.02768,0.502141,0.844398,-0.033063,0.518319,0.82687,-0.039583,0.497324,0.813209,-0.026018,0.488729,0.874157,-0.035525,0.511098,0.873425,-0.035051,0.527324,0.854332,-0.036082,0.512805,0.852502,-0.032916,0.510543,0.901445,-0.042447,0.530805,0.899867,-0.04024,0.544753,0.882101,-0.037419,1,1,0.6
1143,'2026/05/06 10:41:08:435',5,0.630206,0.799172,0,0.602421,0.737624,-0.006107,0.561432,0.683647,-0.013974,0.545361,0.631415,-0.022651,0.545761,0.586752,-0.032482,0.487891,0.728273,-0.017005,0.473335,0.791583,-0.02914,0.494819,0.799565,-0.040078,0.509739,0.785898,-0.048471,0.48739,0.772819,-0.023022,0.47702,0.839898,-0.030311,0.499715,0.841782,-0.034704,0.515925,0.823882,-0.040666,0.498565,0.817283,-0.02896,0.488269,0.874077,-0.037444,0.509651,0.872002,-0.03593,0.525506,0.853139,-0.036616,0.514108,0.856671,-0.035992,0.510436,0.902271,-0.044374,0.530297,0.898576,-0.041531,0.544322,0.880029,-0.038512,1,1,0.6
1144,'2026/05/06 10:41:08:486',5,0.629103,0.799233,0,0.600954,0.736822,-0.005294,0.56142,0.682141,-0.01208,0.545139,0.630703,-0.019711,0.54435,0.587227,-0.028674,0.486413,0.726338,-0.014697,0.476059,0.790085,-0.025017,0.497381,0.801249,-0.035452,0.512257,0.790781,-0.043747,0.484726,0.769618,-0.020621,0.478898,0.839547,-0.025785,0.501762,0.844246,-0.030636,0.518579,0.828631,-0.037354,0.495099,0.813547,-0.026241,0.489432,0.873549,-0.033175,0.511393,0.87316,-0.03267,0.528021,0.855582,-0.034428,0.510245,0.853112,-0.032911,0.510721,0.901379,-0.040686,0.53087,0.899894,-0.038261,0.544817,0.882901,-0.035655,1,1,0.6
1145,'2026/05/06 10:41:08:528',5,0.629103,0.799233,0,0.600954,0.736822,-0.005294,0.56142,0.682141,-0.01208,0.545139,0.630703,-0.019711,0.54435,0.587227,-0.028674,0.486413,0.726338,-0.014697,0.476059,0.790085,-0.025017,0.497381,0.801249,-0.035452,0.512257,0.790781,-0.043747,0.484726,0.769618,-0.020621,0.478898,0.839547,-0.025785,0.501762,0.844246,-0.030636,0.518579,0.828631,-0.037354,0.495099,0.813547,-0.026241,0.489432,0.873549,-0.033175,0.511393,0.87316,-0.03267,0.528021,0.855582,-0.034428,0.510245,0.853112,-0.032911,0.510721,0.901379,-0.040686,0.53087,0.899894,-0.038261,0.544817,0.882901,-0.035655,1,1,0.6
1146,'2026/05/06 10:41:08:560',5,0.627397,0.799948,0,0.599503,0.736972,-0.008293,0.561529,0.68115,-0.016188,0.545649,0.62999,-0.02438,0.542967,0.58634,-0.033406,0.486036,0.727346,-0.016956,0.47375,0.792433,-0.028689,0.496002,0.802576,-0.039428,0.511229,0.790521,-0.047747,0.485744,0.77069,-0.022038,0.476847,0.84157,-0.030378,0.501202,0.845232,-0.036545,0.519249,0.828849,-0.043383,0.496947,0.813955,-0.027154,0.488336,0.874891,-0.037353,0.510897,0.874079,-0.037459,0.528587,0.856706,-0.038665,0.51264,0.852573,-0.033469,0.510152,0.901021,-0.043634,0.529681,0.900283,-0.041924,0.544094,0.883503,-0.039297,1,1,0.6
1147,'2026/05/06 10:41:08:588',5,0.627119,0.798178,0,0.600473,0.737194,-0.005908,0.561556,0.683059,-0.012665,0.545573,0.632547,-0.020434,0.544872,0.589282,-0.029527,0.488309,0.72628,-0.013904,0.475085,0.788342,-0.025135,0.496091,0.799554,-0.036073,0.511036,0.789132,-0.044594,0.486668,0.769053,-0.019887,0.477919,0.838099,-0.026827,0.500865,0.842068,-0.032247,0.517544,0.825851,-0.038822,0.497074,0.812849,-0.025878,0.488229,0.872828,-0.034555,0.510651,0.872359,-0.03428,0.527333,0.854442,-0.035668,0.512131,0.852406,-0.032951,0.510272,0.901736,-0.042071,0.53051,0.900271,-0.040208,0.5447,0.882924,-0.037765,1,1,0.6
1148,'2026/05/06 10:41:08:621',5,0.625023,0.8001,0,0.59769,0.735606,-0.00708,0.561588,0.680508,-0.014294,0.545147,0.630308,-0.021997,0.542124,0.587347,-0.030991,0.485326,0.727089,-0.015463,0.477614,0.79307,-0.025744,0.498639,0.803894,-0.036339,0.51299,0.793398,-0.044771,0.484265,0.771327,-0.020502,0.479254,0.840051,-0.026702,0.501455,0.84571,-0.032969,0.518977,0.831705,-0.040535,0.495209,0.814972,-0.025314,0.488556,0.872771,-0.033986,0.508868,0.874641,-0.034956,0.526691,0.860169,-0.037151,0.510706,0.853715,-0.031166,0.509224,0.899477,-0.040238,0.527481,0.9006,-0.038809,0.542072,0.886044,-0.036696,1,1,0.6
1149,'2026/05/06 10:41:08:656',5,0.628705,0.798174,0,0.600319,0.737629,-0.004376,0.56052,0.684259,-0.011003,0.544839,0.633325,-0.018679,0.54455,0.589831,-0.02757,0.48626,0.727973,-0.014123,0.474583,0.789873,-0.024701,0.496026,0.799047,-0.034743,0.510902,0.78653,-0.042686,0.485298,0.771893,-0.0206,0.477897,0.838119,-0.026666,0.50096,0.840991,-0.030938,0.51756,0.823792,-0.036854,0.496502,0.816117,-0.026808,0.488961,0.873089,-0.03428,0.51073,0.872067,-0.032899,0.526749,0.853893,-0.033783,0.512164,0.855725,-0.033986,0.51077,0.901642,-0.041946,0.530641,0.898704,-0.039259,0.544238,0.880763,-0.036327,1,1,0.6
1150,'2026/05/06 10:41:08:684',5,0.628253,0.798181,0,0.602617,0.736534,-0.005748,0.562303,0.682878,-0.012088,0.545706,0.633602,-0.019431,0.543714,0.590968,-0.027808,0.486788,0.726937,-0.011888,0.476705,0.789542,-0.023865,0.498984,0.798125,-0.035602,0.514301,0.785044,-0.044494,0.484326,0.769328,-0.01792,0.479425,0.839561,-0.025148,0.503578,0.842085,-0.030997,0.520044,0.824239,-0.037596,0.494364,0.813309,-0.024156,0.490173,0.873756,-0.033143,0.513188,0.871854,-0.033019,0.528914,0.852369,-0.034305,0.509447,0.853346,-0.031551,0.513188,0.902696,-0.041303,0.534833,0.899539,-0.039872,0.548218,0.880843,-0.037414,1,1,0.6
1151,'2026/05/06 10:41:08:719',5,0.626739,0.796652,0,0.599598,0.735792,-0.005309,0.560958,0.683777,-0.012701,0.54456,0.632985,-0.021158,0.544527,0.589215,-0.030926,0.486629,0.729138,-0.01518,0.474891,0.793503,-0.026416,0.496131,0.80177,-0.037048,0.510423,0.788389,-0.045338,0.486337,0.77195,-0.02146,0.478298,0.841255,-0.027841,0.500583,0.843554,-0.03226,0.516391,0.82573,-0.038424,0.49765,0.815415,-0.027605,0.489404,0.875068,-0.035136,0.510833,0.873141,-0.034009,0.526261,0.854058,-0.035259,0.513521,0.854701,-0.034831,0.512056,0.90314,-0.042656,0.53172,0.899588,-0.040163,0.545089,0.881109,-0.037631,1,1,0.6
1152,'2026/05/06 10:41:08:754',5,0.628473,0.798011,0,0.600564,0.73698,-0.005207,0.561409,0.684012,-0.012367,0.544887,0.633704,-0.020532,0.544353,0.590614,-0.029893,0.487678,0.728418,-0.014811,0.475079,0.792875,-0.026375,0.496743,0.802105,-0.037051,0.511445,0.789057,-0.045245,0.48711,0.771418,-0.021099,0.478545,0.841468,-0.027875,0.50132,0.844495,-0.032432,0.517394,0.826764,-0.038479,0.498003,0.815362,-0.027285,0.48978,0.875639,-0.035422,0.511734,0.873869,-0.034359,0.527334,0.854451,-0.035416,0.513121,0.855401,-0.034507,0.512085,0.903864,-0.042822,0.53259,0.900349,-0.040341,0.546143,0.881496,-0.037601,1,1,0.6
1153,'2026/05/06 10:41:08:792',5,0.625591,0.801055,0,0.59887,0.737319,-0.007779,0.561116,0.682368,-0.015359,0.545179,0.632544,-0.023435,0.542664,0.589664,-0.032471,0.486192,0.728806,-0.0159,0.477046,0.793153,-0.027513,0.498723,0.802096,-0.038577,0.513248,0.789376,-0.047204,0.48509,0.773227,-0.02122,0.479827,0.842022,-0.028895,0.503139,0.845102,-0.035187,0.519693,0.828276,-0.042349,0.495805,0.817437,-0.026577,0.490517,0.875383,-0.036393,0.51232,0.873937,-0.036626,0.528544,0.855769,-0.038037,0.511069,0.856858,-0.033123,0.511773,0.902511,-0.043002,0.531756,0.900853,-0.041212,0.545579,0.883711,-0.0386,1,1,0.6
1154,'2026/05/06 10:41:08:823',5,0.628812,0.79698,0,0.600368,0.735842,-0.005388,0.55992,0.683961,-0.012447,0.544044,0.633301,-0.020497,0.54343,0.589949,-0.029639,0.487282,0.730016,-0.01433,0.476145,0.796188,-0.025727,0.498098,0.803851,-0.03629,0.512431,0.789088,-0.044566,0.487081,0.77353,-0.020823,0.480131,0.844086,-0.027766,0.503136,0.845602,-0.03266,0.518785,0.826764,-0.038891,0.498562,0.817465,-0.027283,0.491998,0.878077,-0.035447,0.514073,0.875212,-0.034376,0.528903,0.854919,-0.03542,0.514768,0.856888,-0.034859,0.513896,0.904437,-0.043283,0.534324,0.900748,-0.040742,0.547236,0.881683,-0.037915,1,1,0.6
1155,'2026/05/06 10:41:08:853',5,0.628273,0.801485,0,0.599688,0.738253,-0.003831,0.560714,0.682788,-0.009489,0.543799,0.633351,-0.016064,0.542668,0.591311,-0.023983,0.487205,0.728025,-0.013973,0.476344,0.791063,-0.022836,0.497221,0.802339,-0.031554,0.512042,0.792441,-0.038817,0.485766,0.771536,-0.020336,0.479626,0.841524,-0.025319,0.502228,0.846225,-0.030004,0.519337,0.831161,-0.036409,0.49678,0.815486,-0.026083,0.489959,0.875844,-0.032783,0.511258,0.8764,-0.032389,0.527754,0.860481,-0.034177,0.51298,0.85522,-0.032667,0.511935,0.903191,-0.040489,0.530885,0.902678,-0.038367,0.544201,0.88721,-0.035957,1,1,0.6
1156,'2026/05/06 10:41:08:885',5,0.625627,0.798382,0,0.599068,0.737616,-0.006009,0.560542,0.684732,-0.012852,0.54448,0.634532,-0.020573,0.543414,0.591434,-0.029541,0.486472,0.730076,-0.013681,0.477263,0.794662,-0.024673,0.498837,0.804505,-0.03558,0.513179,0.792308,-0.044045,0.484839,0.773043,-0.019356,0.479496,0.841877,-0.025557,0.502406,0.845789,-0.030968,0.518381,0.829554,-0.037718,0.495155,0.816323,-0.024987,0.489258,0.875204,-0.033171,0.511247,0.874851,-0.033141,0.527304,0.857427,-0.034781,0.510141,0.855369,-0.031707,0.510781,0.902799,-0.040378,0.530682,0.901524,-0.038579,0.544011,0.885064,-0.036227,1,1,0.6
1157,'2026/05/06 10:41:08:914',5,0.625627,0.798382,0,0.599068,0.737616,-0.006009,0.560542,0.684732,-0.012852,0.54448,0.634532,-0.020573,0.543414,0.591434,-0.029541,0.486472,0.730076,-0.013681,0.477263,0.794662,-0.024673,0.498837,0.804505,-0.03558,0.513179,0.792308,-0.044045,0.484839,0.773043,-0.019356,0.479496,0.841877,-0.025557,0.502406,0.845789,-0.030968,0.518381,0.829554,-0.037718,0.495155,0.816323,-0.024987,0.489258,0.875204,-0.033171,0.511247,0.874851,-0.033141,0.527304,0.857427,-0.034781,0.510141,0.855369,-0.031707,0.510781,0.902799,-0.040378,0.530682,0.901524,-0.038579,0.544011,0.885064,-0.036227,1,1,0.6
1158,'2026/05/06 10:41:08:950',5,0.628859,0.7976,0,0.600328,0.735713,-0.005223,0.560295,0.684707,-0.012342,0.543714,0.63417,-0.020477,0.543454,0.590592,-0.029846,0.48642,0.730237,-0.014696,0.475024,0.795554,-0.025661,0.496398,0.803248,-0.036195,0.510419,0.789421,-0.044459,0.486375,0.77301,-0.021046,0.479261,0.842665,-0.027279,0.501579,0.843858,-0.031946,0.517169,0.825452,-0.038202,0.498351,0.816436,-0.027255,0.491456,0.876187,-0.034313,0.512519,0.873446,-0.033409,0.527315,0.853971,-0.034839,0.515119,0.855699,-0.034578,0.513662,0.903611,-0.042037,0.532501,0.899738,-0.039609,0.544973,0.881272,-0.037069,1,1,0.6
1159,'2026/05/06 10:41:08:981',5,0.630906,0.797557,0,0.601857,0.737221,-0.004939,0.560996,0.685028,-0.011444,0.543917,0.634601,-0.018955,0.543255,0.591689,-0.027587,0.486587,0.729529,-0.013736,0.475799,0.795886,-0.025032,0.497416,0.804315,-0.035798,0.511428,0.790281,-0.044046,0.486105,0.772467,-0.019963,0.479455,0.845118,-0.02633,0.502789,0.846699,-0.030921,0.517976,0.827607,-0.037018,0.49769,0.815778,-0.026103,0.491022,0.878682,-0.033997,0.513475,0.87484,-0.033196,0.528533,0.853911,-0.034354,0.514063,0.854886,-0.033289,0.513082,0.904681,-0.041331,0.533584,0.899886,-0.038791,0.547087,0.880253,-0.035936,1,1,0.6
1160,'2026/05/06 10:41:09:008',5,0.628157,0.798836,0,0.599535,0.73687,-0.005148,0.56126,0.682711,-0.011434,0.544414,0.632005,-0.01853,0.542832,0.589405,-0.027025,0.485447,0.728852,-0.013683,0.47684,0.793198,-0.022763,0.497932,0.804766,-0.032534,0.512357,0.794923,-0.040526,0.484821,0.771682,-0.019275,0.479291,0.841434,-0.024017,0.501885,0.847144,-0.02919,0.518976,0.832905,-0.036179,0.496339,0.814452,-0.024468,0.489375,0.874193,-0.031204,0.510446,0.875578,-0.03141,0.527681,0.86025,-0.033595,0.512377,0.852698,-0.030629,0.510898,0.900313,-0.038094,0.529314,0.900684,-0.03616,0.543015,0.885501,-0.034064,1,1,0.6
1161,'2026/05/06 10:41:09:041',5,0.62911,0.798945,0,0.60094,0.737978,-0.005262,0.561999,0.683848,-0.011869,0.544938,0.633738,-0.019281,0.543435,0.591036,-0.027775,0.486656,0.726985,-0.014696,0.476307,0.789088,-0.025505,0.498236,0.798441,-0.035592,0.51284,0.786516,-0.043574,0.485239,0.77019,-0.020846,0.479523,0.839879,-0.027428,0.50317,0.843011,-0.032166,0.519321,0.825938,-0.038341,0.495823,0.814208,-0.026802,0.489981,0.87474,-0.035201,0.512456,0.87314,-0.034306,0.528448,0.854414,-0.035348,0.511098,0.853981,-0.033761,0.51091,0.90324,-0.042837,0.53148,0.900602,-0.04061,0.545192,0.882394,-0.037794,1,1,0.6
1162,'2026/05/06 10:41:09:073',5,0.630756,0.797918,0,0.601442,0.736746,-0.005288,0.561284,0.683469,-0.01229,0.544203,0.633052,-0.02028,0.543542,0.590107,-0.029489,0.487416,0.727923,-0.01466,0.475697,0.793014,-0.026066,0.497031,0.802141,-0.036682,0.511229,0.789365,-0.044881,0.486935,0.770815,-0.020945,0.479142,0.841896,-0.02783,0.502342,0.844714,-0.032645,0.51834,0.826951,-0.038838,0.498445,0.814381,-0.027119,0.490154,0.875791,-0.035604,0.512356,0.873808,-0.034817,0.528295,0.854567,-0.03589,0.514476,0.853845,-0.034308,0.512468,0.903165,-0.042992,0.532576,0.899819,-0.040685,0.546261,0.8811,-0.037909,1,1,0.6
