@relation dataset

@attribute ID numeric
@attribute Time date 'yyyy/MM/dd HH:mm:ss:SSS'
@attribute 'Training round' numeric
@attribute inputs-1 numeric
@attribute inputs-2 numeric
@attribute inputs-3 numeric
@attribute inputs-4 numeric
@attribute inputs-5 numeric
@attribute inputs-6 numeric
@attribute inputs-7 numeric
@attribute inputs-8 numeric
@attribute inputs-9 numeric
@attribute outputs-1 numeric
@attribute outputs-2 numeric
@attribute outputs-3 numeric

@data
1,'2026/05/14 12:03:19:071',1,0.721379,0.92546,0,0.597505,0.432392,-0.08685,0.910648,0.560023,-0.102258,1,0,0
2,'2026/05/14 12:03:19:100',1,0.721585,0.926617,0,0.596658,0.432295,-0.086051,0.911728,0.559604,-0.102748,1,0,0
3,'2026/05/14 12:03:19:132',1,0.720669,0.925699,0,0.596985,0.432109,-0.085457,0.910248,0.56,-0.100723,1,0,0
4,'2026/05/14 12:03:19:164',1,0.719313,0.927483,0,0.596842,0.431822,-0.086052,0.909659,0.558835,-0.0998,1,0,0
5,'2026/05/14 12:03:19:196',1,0.717364,0.927355,0,0.597343,0.432651,-0.085411,0.909096,0.557931,-0.100063,1,0,0
6,'2026/05/14 12:03:19:254',1,0.718501,0.92808,0,0.595857,0.432849,-0.08684,0.909348,0.559446,-0.101891,1,0,0
7,'2026/05/14 12:03:19:293',1,0.718893,0.926888,0,0.596386,0.432003,-0.084416,0.909028,0.558588,-0.100615,1,0,0
8,'2026/05/14 12:03:19:325',1,0.71856,0.92851,0,0.596375,0.434102,-0.083303,0.908624,0.557927,-0.098675,1,0,0
9,'2026/05/14 12:03:19:353',1,0.719395,0.926635,0,0.596337,0.432402,-0.085962,0.909166,0.558855,-0.101189,1,0,0
10,'2026/05/14 12:03:19:383',1,0.718353,0.927284,0,0.596942,0.432482,-0.086648,0.908633,0.558231,-0.100255,1,0,0
11,'2026/05/14 12:03:19:416',1,0.718391,0.928677,0,0.596974,0.431293,-0.086117,0.909252,0.557133,-0.098237,1,0,0
12,'2026/05/14 12:03:19:461',1,0.71771,0.92786,0,0.59708,0.431806,-0.085365,0.909219,0.558083,-0.099419,1,0,0
13,'2026/05/14 12:03:19:495',1,0.719359,0.927311,0,0.59616,0.434065,-0.083959,0.910347,0.558354,-0.09946,1,0,0
14,'2026/05/14 12:03:19:526',1,0.720564,0.926734,0,0.597489,0.433166,-0.087782,0.910238,0.559384,-0.101215,1,0,0
15,'2026/05/14 12:03:19:558',1,0.721769,0.922645,0,0.596173,0.434365,-0.085229,0.910915,0.559752,-0.102416,1,0,0
16,'2026/05/14 12:03:19:609',1,0.719682,0.927328,0,0.596419,0.435147,-0.082091,0.910634,0.557908,-0.098969,1,0,0
17,'2026/05/14 12:03:19:635',1,0.718429,0.927114,0,0.597649,0.432099,-0.086653,0.909132,0.55643,-0.098657,1,0,0
18,'2026/05/14 12:03:19:667',1,0.719652,0.925521,0,0.596987,0.432714,-0.08549,0.909798,0.558347,-0.100001,1,0,0
19,'2026/05/14 12:03:19:698',1,0.718649,0.928552,0,0.596804,0.432388,-0.083377,0.910236,0.558467,-0.099028,1,0,0
20,'2026/05/14 12:03:19:747',1,0.719505,0.927563,0,0.596462,0.432292,-0.085355,0.910089,0.558359,-0.100412,1,0,0
21,'2026/05/14 12:03:19:800',1,0.718471,0.928359,0,0.596499,0.433037,-0.086104,0.909545,0.556793,-0.100244,1,0,0
22,'2026/05/14 12:03:19:830',1,0.719154,0.927121,0,0.596539,0.433737,-0.085565,0.91003,0.559627,-0.101881,1,0,0
23,'2026/05/14 12:03:19:874',1,0.721005,0.926697,0,0.595743,0.433774,-0.082915,0.910057,0.559784,-0.100728,1,0,0
24,'2026/05/14 12:03:19:905',1,0.718511,0.927241,0,0.596054,0.432299,-0.087612,0.908382,0.557815,-0.099665,1,0,0
25,'2026/05/14 12:03:19:954',1,0.718975,0.927486,0,0.596686,0.43206,-0.083218,0.908701,0.557233,-0.097367,1,0,0
26,'2026/05/14 12:03:19:985',1,0.717736,0.928346,0,0.595514,0.43413,-0.085252,0.908593,0.558059,-0.100298,1,0,0
27,'2026/05/14 12:03:20:015',1,0.719947,0.928545,0,0.594866,0.435468,-0.082082,0.909914,0.559651,-0.100596,1,0,0
28,'2026/05/14 12:03:20:047',1,0.718428,0.9278,0,0.596575,0.434657,-0.084038,0.909163,0.558322,-0.099468,1,0,0
29,'2026/05/14 12:03:20:078',1,0.717504,0.927274,0,0.596713,0.432357,-0.085638,0.908305,0.558225,-0.097017,1,0,0
30,'2026/05/14 12:03:20:110',1,0.718188,0.927858,0,0.596872,0.43367,-0.083916,0.909523,0.558402,-0.099146,1,0,0
31,'2026/05/14 12:03:20:140',1,0.718444,0.927498,0,0.596913,0.432791,-0.082156,0.909436,0.55948,-0.097536,1,0,0
32,'2026/05/14 12:03:20:171',1,0.717768,0.926954,0,0.597375,0.432656,-0.086159,0.908665,0.559024,-0.099084,1,0,0
33,'2026/05/14 12:03:20:203',1,0.71762,0.926818,0,0.596109,0.432646,-0.085212,0.909648,0.559602,-0.099474,1,0,0
34,'2026/05/14 12:03:20:233',1,0.716463,0.92745,0,0.595776,0.431162,-0.087715,0.908526,0.558383,-0.098316,1,0,0
35,'2026/05/14 12:03:20:266',1,0.718221,0.928479,0,0.59639,0.433454,-0.08554,0.909875,0.557803,-0.099275,1,0,0
36,'2026/05/14 12:03:20:305',1,0.717787,0.927245,0,0.596966,0.433397,-0.081889,0.909439,0.559004,-0.097901,1,0,0
37,'2026/05/14 12:03:20:329',1,0.718434,0.927998,0,0.59668,0.431573,-0.086012,0.9091,0.559057,-0.098159,1,0,0
38,'2026/05/14 12:03:20:371',1,0.71679,0.92645,0,0.597105,0.432464,-0.08245,0.908661,0.559232,-0.09818,1,0,0
39,'2026/05/14 12:03:20:420',1,0.718744,0.925171,0,0.597417,0.433631,-0.083106,0.90949,0.561667,-0.099042,1,0,0
40,'2026/05/14 12:03:20:456',1,0.719854,0.925875,0,0.596722,0.436105,-0.081971,0.910004,0.559848,-0.098714,1,0,0
41,'2026/05/14 12:03:20:495',1,0.71853,0.927159,0,0.597928,0.434693,-0.084032,0.909737,0.559899,-0.098736,1,0,0
42,'2026/05/14 12:03:20:520',1,0.719091,0.925029,0,0.597986,0.433671,-0.086065,0.908983,0.559952,-0.099969,1,0,0
43,'2026/05/14 12:03:20:551',1,0.717587,0.926326,0,0.598314,0.433706,-0.084451,0.907931,0.557369,-0.096578,1,0,0
44,'2026/05/14 12:03:20:585',1,0.721058,0.926261,0,0.598328,0.434039,-0.083523,0.910078,0.559676,-0.099079,1,0,0
45,'2026/05/14 12:03:20:614',1,0.720982,0.926879,0,0.597563,0.436982,-0.079466,0.911511,0.560058,-0.098172,1,0,0
46,'2026/05/14 12:03:20:651',1,0.722023,0.925048,0,0.597459,0.434286,-0.077707,0.912795,0.55937,-0.097401,1,0,0
47,'2026/05/14 12:03:20:678',1,0.723058,0.923533,0,0.597289,0.435586,-0.078727,0.913809,0.557377,-0.095082,1,0,0
48,'2026/05/14 12:03:20:709',1,0.722718,0.92492,0,0.601641,0.432159,-0.080822,0.913225,0.559157,-0.097053,1,0,0
49,'2026/05/14 12:03:20:740',1,0.723092,0.923744,0,0.602912,0.433591,-0.080828,0.913657,0.560242,-0.097928,1,0,0
50,'2026/05/14 12:03:20:774',1,0.723218,0.92498,0,0.603158,0.43154,-0.08119,0.914462,0.560543,-0.096571,1,0,0
51,'2026/05/14 12:03:20:805',1,0.722555,0.925852,0,0.602761,0.432205,-0.08391,0.915203,0.558916,-0.09802,1,0,0
52,'2026/05/14 12:03:20:834',1,0.723981,0.927364,0,0.604431,0.430931,-0.082326,0.915824,0.560325,-0.096855,1,0,0
53,'2026/05/14 12:03:20:866',1,0.723768,0.925916,0,0.604296,0.431155,-0.082091,0.915187,0.559429,-0.094627,1,0,0
54,'2026/05/14 12:03:20:898',1,0.725468,0.925475,0,0.603235,0.434895,-0.078234,0.917072,0.561197,-0.094716,1,0,0
55,'2026/05/14 12:03:20:931',1,0.725028,0.925429,0,0.605811,0.433407,-0.080619,0.9178,0.560696,-0.097659,1,0,0
56,'2026/05/14 12:03:20:962',1,0.726448,0.922853,0,0.603603,0.434163,-0.075532,0.9192,0.558653,-0.093177,1,0,0
57,'2026/05/14 12:03:20:993',1,0.726773,0.922568,0,0.606876,0.432393,-0.079926,0.918391,0.562126,-0.09517,1,0,0
58,'2026/05/14 12:03:21:026',1,0.725935,0.92399,0,0.608529,0.430726,-0.080495,0.918111,0.562188,-0.094952,1,0,0
59,'2026/05/14 12:03:21:058',1,0.725754,0.924646,0,0.609042,0.429789,-0.084016,0.918792,0.562374,-0.094418,1,0,0
60,'2026/05/14 12:03:21:106',1,0.726137,0.925719,0,0.609657,0.429339,-0.081057,0.918651,0.561068,-0.094239,1,0,0
61,'2026/05/14 12:03:21:143',1,0.727274,0.928334,0,0.608335,0.431524,-0.077825,0.919655,0.561895,-0.092203,1,0,0
62,'2026/05/14 12:03:21:181',1,0.727628,0.923532,0,0.609582,0.43011,-0.081482,0.919458,0.562622,-0.09331,1,0,0
63,'2026/05/14 12:03:21:213',1,0.728151,0.925208,0,0.608635,0.428779,-0.077523,0.921206,0.563542,-0.094609,1,0,0
64,'2026/05/14 12:03:21:245',1,0.725801,0.926178,0,0.609572,0.427399,-0.081485,0.920067,0.562432,-0.094573,1,0,0
65,'2026/05/14 12:03:21:275',1,0.726021,0.926457,0,0.60963,0.427266,-0.083821,0.919399,0.562773,-0.095275,1,0,0
66,'2026/05/14 12:03:21:306',1,0.726609,0.9245,0,0.608811,0.427961,-0.078944,0.920607,0.563715,-0.094166,1,0,0
67,'2026/05/14 12:03:21:339',1,0.726049,0.927635,0,0.60854,0.426719,-0.081723,0.919834,0.561803,-0.094164,1,0,0
68,'2026/05/14 12:03:21:369',1,0.725326,0.926961,0,0.608832,0.427633,-0.079225,0.920005,0.560802,-0.093418,1,0,0
69,'2026/05/14 12:03:21:401',1,0.724632,0.928796,0,0.608323,0.4257,-0.082388,0.919349,0.561418,-0.09407,1,0,0
70,'2026/05/14 12:03:21:432',1,0.724027,0.927931,0,0.608083,0.426153,-0.081766,0.918892,0.56142,-0.094391,1,0,0
71,'2026/05/14 12:03:21:464',1,0.723474,0.929119,0,0.608135,0.42695,-0.082298,0.918804,0.562325,-0.094206,1,0,0
72,'2026/05/14 12:03:21:494',1,0.725046,0.929343,0,0.607184,0.42539,-0.078928,0.918618,0.561525,-0.094449,1,0,0
73,'2026/05/14 12:03:21:525',1,0.724327,0.930768,0,0.606118,0.427008,-0.082229,0.919824,0.562557,-0.094883,1,0,0
74,'2026/05/14 12:03:21:556',1,0.724721,0.928898,0,0.606932,0.427159,-0.084499,0.919753,0.561208,-0.096494,1,0,0
75,'2026/05/14 12:03:21:588',1,0.725823,0.928918,0,0.606975,0.4265,-0.080631,0.920487,0.56123,-0.094542,1,0,0
76,'2026/05/14 12:03:21:618',1,0.72547,0.928145,0,0.607916,0.425485,-0.083708,0.919286,0.561472,-0.094989,1,0,0
77,'2026/05/14 12:03:21:650',1,0.724913,0.929438,0,0.608007,0.424508,-0.083741,0.919493,0.561179,-0.094938,1,0,0
78,'2026/05/14 12:03:21:682',1,0.727321,0.929265,0,0.6076,0.424895,-0.08042,0.919236,0.559879,-0.094871,1,0,0
79,'2026/05/14 12:03:21:715',1,0.725113,0.928524,0,0.608145,0.424398,-0.084005,0.919992,0.56169,-0.094474,1,0,0
80,'2026/05/14 12:03:21:761',1,0.725444,0.929053,0,0.608236,0.424727,-0.084133,0.920602,0.560133,-0.095602,1,0,0
81,'2026/05/14 12:03:21:794',1,0.726165,0.928927,0,0.608474,0.426327,-0.082059,0.92101,0.561093,-0.095128,1,0,0
82,'2026/05/14 12:03:21:823',1,0.728303,0.930461,0,0.609349,0.426571,-0.078169,0.921265,0.560496,-0.091673,1,0,0
83,'2026/05/14 12:03:21:855',1,0.728131,0.93014,0,0.609283,0.427595,-0.078482,0.922968,0.561308,-0.091803,1,0,0
84,'2026/05/14 12:03:21:889',1,0.728647,0.929238,0,0.610857,0.42683,-0.080435,0.922662,0.561189,-0.092572,1,0,0
85,'2026/05/14 12:03:21:921',1,0.728631,0.929098,0,0.611504,0.427569,-0.080959,0.922738,0.560861,-0.092236,1,0,0
86,'2026/05/14 12:03:21:952',1,0.728831,0.931421,0,0.610538,0.426623,-0.077824,0.925009,0.559855,-0.091413,1,0,0
87,'2026/05/14 12:03:22:000',1,0.728519,0.928818,0,0.611724,0.427468,-0.07925,0.922954,0.562508,-0.092391,1,0,0
88,'2026/05/14 12:03:22:029',1,0.728573,0.93047,0,0.610789,0.426942,-0.082455,0.923418,0.561255,-0.09391,1,0,0
89,'2026/05/14 12:03:22:063',1,0.728904,0.927344,0,0.611718,0.427427,-0.081177,0.922241,0.561871,-0.091492,1,0,0
90,'2026/05/14 12:03:22:091',1,0.729969,0.93034,0,0.609557,0.429323,-0.073803,0.923425,0.56125,-0.091275,1,0,0
91,'2026/05/14 12:03:22:124',1,0.728287,0.92964,0,0.609958,0.426689,-0.075872,0.921456,0.560294,-0.089888,1,0,0
92,'2026/05/14 12:03:22:158',1,0.728752,0.92861,0,0.611012,0.427486,-0.080671,0.921979,0.561675,-0.092535,1,0,0
93,'2026/05/14 12:03:22:187',1,0.729267,0.928834,0,0.611158,0.427298,-0.076423,0.921717,0.560352,-0.090018,1,0,0
94,'2026/05/14 12:03:22:218',1,0.73168,0.92878,0,0.609575,0.429152,-0.07585,0.921179,0.559916,-0.089033,1,0,0
95,'2026/05/14 12:03:22:253',1,0.729687,0.928115,0,0.611562,0.425927,-0.079054,0.920821,0.559778,-0.090908,1,0,0
96,'2026/05/14 12:03:22:283',1,0.728705,0.926562,0,0.612055,0.426874,-0.083101,0.920963,0.560403,-0.093863,1,0,0
97,'2026/05/14 12:03:22:311',1,0.729723,0.928451,0,0.610533,0.426152,-0.080146,0.921283,0.559631,-0.092056,1,0,0
98,'2026/05/14 12:03:22:344',1,0.729888,0.929511,0,0.610981,0.426278,-0.076812,0.921299,0.560281,-0.092108,1,0,0
99,'2026/05/14 12:03:22:378',1,0.72993,0.928541,0,0.612284,0.426344,-0.078229,0.921294,0.559876,-0.091482,1,0,0
100,'2026/05/14 12:03:22:407',1,0.728971,0.926567,0,0.612406,0.426124,-0.080068,0.920745,0.559762,-0.093454,1,0,0
101,'2026/05/14 12:03:22:453',1,0.730842,0.928356,0,0.609553,0.42972,-0.074878,0.922105,0.560408,-0.089984,1,0,0
102,'2026/05/14 12:03:22:487',1,0.730433,0.927845,0,0.610463,0.428093,-0.074482,0.921118,0.560188,-0.090339,1,0,0
103,'2026/05/14 12:03:22:520',1,0.728713,0.929919,0,0.610822,0.427765,-0.077626,0.920998,0.560068,-0.0903,1,0,0
104,'2026/05/14 12:03:22:553',1,0.729254,0.930129,0,0.61062,0.426653,-0.074197,0.921437,0.559834,-0.088647,1,0,0
105,'2026/05/14 12:03:22:580',1,0.729724,0.931284,0,0.609758,0.427092,-0.075262,0.921313,0.559092,-0.089344,1,0,0
106,'2026/05/14 12:03:22:634',1,0.7288,0.929712,0,0.610219,0.428017,-0.075872,0.920984,0.56066,-0.088355,1,0,0
107,'2026/05/14 12:03:22:659',1,0.729602,0.928436,0,0.611403,0.428616,-0.078271,0.922213,0.560892,-0.092696,1,0,0
108,'2026/05/14 12:03:22:690',1,0.729838,0.930253,0,0.609864,0.42821,-0.074038,0.921429,0.55993,-0.08741,1,0,0
109,'2026/05/14 12:03:22:723',1,0.731556,0.92688,0,0.611151,0.428913,-0.072674,0.922,0.561247,-0.091052,1,0,0
110,'2026/05/14 12:03:22:756',1,0.729628,0.927858,0,0.612156,0.427315,-0.077838,0.92047,0.55964,-0.090646,1,0,0
111,'2026/05/14 12:03:22:785',1,0.729938,0.929395,0,0.61172,0.428402,-0.075729,0.920895,0.559379,-0.087734,1,0,0
112,'2026/05/14 12:03:22:815',1,0.729165,0.927974,0,0.611783,0.428349,-0.079257,0.921253,0.560435,-0.089586,1,0,0
113,'2026/05/14 12:03:22:848',1,0.72991,0.929252,0,0.610396,0.428664,-0.078957,0.922451,0.559589,-0.090969,1,0,0
114,'2026/05/14 12:03:22:881',1,0.72973,0.927843,0,0.610889,0.427242,-0.074336,0.921204,0.55977,-0.089236,1,0,0
115,'2026/05/14 12:03:22:910',1,0.730801,0.927341,0,0.610465,0.429353,-0.072445,0.921129,0.56005,-0.089023,1,0,0
116,'2026/05/14 12:03:22:943',1,0.729374,0.925799,0,0.612156,0.42696,-0.076856,0.919647,0.558971,-0.091385,1,0,0
117,'2026/05/14 12:03:22:975',1,0.729032,0.928663,0,0.610093,0.428406,-0.075836,0.921245,0.559613,-0.089282,1,0,0
118,'2026/05/14 12:03:23:007',1,0.730151,0.927224,0,0.610466,0.428766,-0.0772,0.922642,0.560967,-0.09254,1,0,0
119,'2026/05/14 12:03:23:037',1,0.730444,0.926786,0,0.611097,0.427803,-0.078249,0.921422,0.561067,-0.090629,1,0,0
120,'2026/05/14 12:03:23:069',1,0.729948,0.929265,0,0.608027,0.428852,-0.077503,0.9223,0.560488,-0.090588,1,0,0
121,'2026/05/14 12:03:23:100',1,0.729132,0.928148,0,0.610282,0.42844,-0.078177,0.9212,0.56004,-0.091482,1,0,0
122,'2026/05/14 12:03:23:139',1,0.731265,0.929935,0,0.608364,0.4289,-0.074214,0.921372,0.55867,-0.088299,1,0,0
123,'2026/05/14 12:03:23:163',1,0.731014,0.927222,0,0.60796,0.429508,-0.076033,0.921807,0.560681,-0.09125,1,0,0
124,'2026/05/14 12:03:23:194',1,0.729934,0.927876,0,0.609262,0.429683,-0.073165,0.920952,0.560507,-0.089647,1,0,0
125,'2026/05/14 12:03:23:226',1,0.73035,0.928299,0,0.608795,0.430301,-0.072205,0.921036,0.561272,-0.088592,1,0,0
126,'2026/05/14 12:03:23:259',1,0.729742,0.928282,0,0.609504,0.428722,-0.072304,0.920263,0.56031,-0.08867,1,0,0
127,'2026/05/14 12:03:23:292',1,0.729899,0.92535,0,0.607758,0.431168,-0.073342,0.92224,0.560478,-0.091814,1,0,0
128,'2026/05/14 12:03:23:331',1,0.730451,0.930422,0,0.607212,0.42878,-0.076544,0.922231,0.559073,-0.09187,1,0,0
129,'2026/05/14 12:03:23:354',1,0.73005,0.928047,0,0.608466,0.429433,-0.075503,0.921894,0.559684,-0.092386,1,0,0
130,'2026/05/14 12:03:23:386',1,0.73036,0.928234,0,0.608784,0.428477,-0.076027,0.922406,0.559339,-0.091263,1,0,0
131,'2026/05/14 12:03:23:418',1,0.728923,0.928282,0,0.608776,0.428542,-0.076337,0.921965,0.559743,-0.091049,1,0,0
132,'2026/05/14 12:03:23:449',1,0.731067,0.92942,0,0.608557,0.430856,-0.073701,0.922477,0.559635,-0.091657,1,0,0
133,'2026/05/14 12:03:23:488',1,0.730665,0.928434,0,0.608847,0.431699,-0.074589,0.922455,0.559587,-0.092207,1,0,0
134,'2026/05/14 12:03:23:513',1,0.731424,0.926321,0,0.609128,0.431287,-0.073291,0.923198,0.559354,-0.090462,1,0,0
135,'2026/05/14 12:03:23:544',1,0.730672,0.92662,0,0.609652,0.431015,-0.074084,0.922264,0.559822,-0.091214,1,0,0
136,'2026/05/14 12:03:23:577',1,0.730348,0.928462,0,0.609008,0.431345,-0.073657,0.923339,0.559651,-0.090612,1,0,0
137,'2026/05/14 12:03:23:606',1,0.728305,0.928311,0,0.61298,0.42917,-0.077483,0.920785,0.55967,-0.091215,1,0,0
138,'2026/05/14 12:03:23:637',1,0.729556,0.925041,0,0.610798,0.428217,-0.07522,0.922373,0.561616,-0.090377,1,0,0
139,'2026/05/14 12:03:23:668',1,0.731061,0.928805,0,0.6097,0.432238,-0.072023,0.922753,0.55992,-0.089799,1,0,0
140,'2026/05/14 12:03:23:699',1,0.73033,0.928418,0,0.609831,0.430497,-0.073087,0.922129,0.559676,-0.089955,1,0,0
141,'2026/05/14 12:03:23:733',1,0.729814,0.927049,0,0.609973,0.429639,-0.07415,0.921946,0.560312,-0.091052,1,0,0
142,'2026/05/14 12:03:23:766',1,0.730004,0.927669,0,0.609404,0.432737,-0.071328,0.921671,0.560598,-0.091964,1,0,0
143,'2026/05/14 12:03:23:797',1,0.729701,0.927784,0,0.609273,0.428868,-0.07463,0.921112,0.560252,-0.089854,1,0,0
144,'2026/05/14 12:03:23:827',1,0.730993,0.927479,0,0.609147,0.432462,-0.070851,0.922073,0.560863,-0.090125,1,0,0
145,'2026/05/14 12:03:23:859',1,0.729989,0.928013,0,0.609082,0.429075,-0.07386,0.922102,0.55991,-0.091464,1,0,0
146,'2026/05/14 12:03:23:897',1,0.72963,0.926978,0,0.610199,0.429316,-0.07729,0.921876,0.560295,-0.092575,1,0,0
147,'2026/05/14 12:03:23:936',1,0.729238,0.926655,0,0.610183,0.429178,-0.075466,0.921584,0.559883,-0.090453,1,0,0
148,'2026/05/14 12:03:23:967',1,0.729146,0.927177,0,0.60835,0.430594,-0.074264,0.92256,0.560113,-0.091117,1,0,0
149,'2026/05/14 12:03:23:997',1,0.729803,0.92707,0,0.610039,0.428972,-0.07485,0.9217,0.560758,-0.090592,1,0,0
150,'2026/05/14 12:03:24:030',1,0.730078,0.928249,0,0.609498,0.428926,-0.073999,0.921954,0.560199,-0.0903,1,0,0
151,'2026/05/14 12:03:24:069',1,0.730201,0.924328,0,0.610915,0.429984,-0.074438,0.922638,0.559364,-0.09112,1,0,0
152,'2026/05/14 12:03:24:099',1,0.729994,0.928221,0,0.609904,0.428503,-0.075288,0.921108,0.559628,-0.089192,1,0,0
153,'2026/05/14 12:03:24:132',1,0.730062,0.93018,0,0.609399,0.429929,-0.075482,0.921265,0.558128,-0.089532,1,0,0
154,'2026/05/14 12:03:24:165',1,0.73083,0.927098,0,0.609654,0.429287,-0.076435,0.922272,0.55961,-0.091671,1,0,0
155,'2026/05/14 12:03:24:196',1,0.72958,0.928776,0,0.611634,0.429263,-0.076544,0.922593,0.560167,-0.090392,1,0,0
156,'2026/05/14 12:03:24:227',1,0.731429,0.926723,0,0.611886,0.42816,-0.075038,0.923568,0.559703,-0.0917,1,0,0
157,'2026/05/14 12:03:24:261',1,0.731092,0.92681,0,0.61178,0.428584,-0.074966,0.923446,0.561129,-0.09092,1,0,0
158,'2026/05/14 12:03:24:299',1,0.730605,0.926109,0,0.614199,0.427517,-0.074091,0.923117,0.559187,-0.089681,1,0,0
159,'2026/05/14 12:03:24:331',1,0.730991,0.926735,0,0.614419,0.428582,-0.076439,0.922761,0.558825,-0.090918,1,0,0
160,'2026/05/14 12:03:24:363',1,0.731932,0.9269,0,0.613824,0.428187,-0.073477,0.923872,0.559304,-0.089874,1,0,0
161,'2026/05/14 12:03:24:393',1,0.72971,0.926825,0,0.615685,0.428028,-0.078672,0.922389,0.559536,-0.091841,1,0,0
162,'2026/05/14 12:03:24:427',1,0.731542,0.923498,0,0.616269,0.429833,-0.072697,0.922263,0.560115,-0.092924,1,0,0
163,'2026/05/14 12:03:24:470',1,0.731944,0.924193,0,0.61385,0.433313,-0.071945,0.922052,0.558675,-0.090564,1,0,0
164,'2026/05/14 12:03:24:507',1,0.731628,0.923961,0,0.612204,0.43216,-0.073145,0.923578,0.560688,-0.090914,1,0,0
165,'2026/05/14 12:03:24:538',1,0.730515,0.923857,0,0.613512,0.429026,-0.075601,0.921914,0.558233,-0.090599,1,0,0
166,'2026/05/14 12:03:24:567',1,0.731976,0.927067,0,0.613612,0.428925,-0.073799,0.921609,0.55769,-0.088688,1,0,0
167,'2026/05/14 12:03:24:598',1,0.731856,0.924472,0,0.613886,0.431357,-0.075674,0.921783,0.558402,-0.092117,1,0,0
168,'2026/05/14 12:03:24:632',1,0.731354,0.925511,0,0.61412,0.42998,-0.073409,0.921521,0.557726,-0.090388,1,0,0
169,'2026/05/14 12:03:24:660',1,0.73198,0.924384,0,0.615107,0.428277,-0.07641,0.920928,0.557138,-0.091235,1,0,0
170,'2026/05/14 12:03:24:693',1,0.730604,0.925426,0,0.614847,0.428454,-0.079021,0.919882,0.557338,-0.093137,1,0,0
171,'2026/05/14 12:03:24:726',1,0.731387,0.924626,0,0.61424,0.428433,-0.074711,0.921696,0.557306,-0.090761,1,0,0
172,'2026/05/14 12:03:24:755',1,0.732042,0.924192,0,0.612809,0.430723,-0.074564,0.921017,0.559052,-0.090401,1,0,0
173,'2026/05/14 12:03:24:790',1,0.731476,0.924337,0,0.612742,0.431953,-0.074586,0.920542,0.557179,-0.089475,1,0,0
174,'2026/05/14 12:03:24:820',1,0.731737,0.92583,0,0.612651,0.430355,-0.07638,0.919896,0.555942,-0.091465,1,0,0
175,'2026/05/14 12:03:24:868',1,0.730527,0.925553,0,0.610272,0.430478,-0.077071,0.920557,0.558018,-0.092099,1,0,0
176,'2026/05/14 12:03:24:901',1,0.732093,0.926706,0,0.61171,0.431414,-0.07297,0.921077,0.558429,-0.090897,1,0,0
177,'2026/05/14 12:03:24:939',1,0.731838,0.925541,0,0.610917,0.43426,-0.075433,0.921108,0.5578,-0.091697,1,0,0
178,'2026/05/14 12:03:24:978',1,0.731094,0.924134,0,0.610938,0.432213,-0.076515,0.921183,0.55873,-0.092808,1,0,0
179,'2026/05/14 12:03:25:008',1,0.730902,0.927256,0,0.611655,0.430563,-0.073218,0.920133,0.557264,-0.089157,1,0,0
180,'2026/05/14 12:03:25:037',1,0.730833,0.9248,0,0.612732,0.431714,-0.077045,0.920161,0.556779,-0.09231,1,0,0
181,'2026/05/14 12:03:25:068',1,0.731978,0.926532,0,0.611558,0.433557,-0.076144,0.920289,0.557917,-0.091192,1,0,0
182,'2026/05/14 12:03:25:100',1,0.731096,0.92653,0,0.611509,0.431458,-0.07645,0.920269,0.556709,-0.090368,1,0,0
183,'2026/05/14 12:03:25:131',1,0.730269,0.925801,0,0.612102,0.429502,-0.075244,0.920646,0.557699,-0.089546,1,0,0
184,'2026/05/14 12:03:25:163',1,0.73019,0.926052,0,0.612743,0.430445,-0.073481,0.92008,0.556552,-0.089719,1,0,0
185,'2026/05/14 12:03:25:194',1,0.730351,0.926103,0,0.612319,0.429671,-0.075172,0.920511,0.556978,-0.090785,1,0,0
186,'2026/05/14 12:03:25:227',1,0.729752,0.924731,0,0.612262,0.429752,-0.075002,0.920289,0.557564,-0.089854,1,0,0
187,'2026/05/14 12:03:25:270',1,0.730345,0.926739,0,0.61232,0.430617,-0.074055,0.919803,0.556425,-0.089058,1,0,0
188,'2026/05/14 12:03:25:307',1,0.730588,0.925165,0,0.612095,0.431558,-0.075393,0.920725,0.55852,-0.091446,1,0,0
189,'2026/05/14 12:03:25:337',1,0.730455,0.924219,0,0.614837,0.429914,-0.073638,0.920064,0.556763,-0.090764,1,0,0
190,'2026/05/14 12:03:25:378',1,0.730864,0.923493,0,0.612626,0.432962,-0.076599,0.921181,0.558461,-0.094053,1,0,0
191,'2026/05/14 12:03:25:400',1,0.731309,0.924174,0,0.614175,0.431775,-0.073628,0.920887,0.557928,-0.091452,1,0,0
192,'2026/05/14 12:03:25:432',1,0.73147,0.924787,0,0.614869,0.430143,-0.073349,0.920696,0.557249,-0.089402,1,0,0
193,'2026/05/14 12:03:25:464',1,0.731645,0.923907,0,0.614989,0.432154,-0.072888,0.921965,0.558967,-0.091653,1,0,0
194,'2026/05/14 12:03:25:494',1,0.731147,0.9218,0,0.616594,0.430357,-0.075128,0.920682,0.558297,-0.093407,1,0,0
195,'2026/05/14 12:03:25:526',1,0.730473,0.92475,0,0.616787,0.42857,-0.073267,0.920579,0.55781,-0.091497,1,0,0
196,'2026/05/14 12:03:25:556',1,0.730641,0.923063,0,0.616297,0.431433,-0.07435,0.919946,0.55848,-0.093521,1,0,0
197,'2026/05/14 12:03:25:589',1,0.731456,0.92324,0,0.614673,0.429976,-0.072847,0.92075,0.558432,-0.090586,1,0,0
198,'2026/05/14 12:03:25:620',1,0.730007,0.922454,0,0.615919,0.429651,-0.074633,0.920379,0.559191,-0.093528,1,0,0
199,'2026/05/14 12:03:25:668',1,0.731769,0.921588,0,0.613709,0.432316,-0.0733,0.922697,0.557972,-0.092882,1,0,0
200,'2026/05/14 12:03:25:701',1,0.7316,0.923554,0,0.613922,0.433214,-0.07204,0.921398,0.557907,-0.091169,1,0,0
201,'2026/05/14 12:03:25:731',1,0.730269,0.921169,0,0.616669,0.431803,-0.0733,0.921226,0.559695,-0.09364,1,0,0
202,'2026/05/14 12:03:25:764',1,0.73107,0.921497,0,0.61531,0.431748,-0.074499,0.920589,0.559125,-0.093668,1,0,0
203,'2026/05/14 12:03:25:796',1,0.729943,0.921274,0,0.615486,0.432296,-0.074256,0.920866,0.558913,-0.094657,1,0,0
204,'2026/05/14 12:03:25:828',1,0.730453,0.922558,0,0.615697,0.429809,-0.075644,0.919221,0.559146,-0.092548,1,0,0
205,'2026/05/14 12:03:25:860',1,0.731694,0.924224,0,0.612973,0.43349,-0.074169,0.920982,0.558261,-0.090579,1,0,0
206,'2026/05/14 12:03:25:891',1,0.731491,0.922354,0,0.612319,0.433271,-0.073904,0.922157,0.558675,-0.092539,1,0,0
207,'2026/05/14 12:03:25:924',1,0.731146,0.924921,0,0.614861,0.430047,-0.073302,0.920431,0.55796,-0.090481,1,0,0
208,'2026/05/14 12:03:25:956',1,0.730549,0.924336,0,0.61381,0.431167,-0.075015,0.920013,0.559113,-0.090343,1,0,0
209,'2026/05/14 12:03:25:988',1,0.730482,0.921472,0,0.615042,0.431638,-0.072035,0.920637,0.558859,-0.091882,1,0,0
210,'2026/05/14 12:03:26:021',1,0.731582,0.925501,0,0.612771,0.432985,-0.075298,0.920625,0.557655,-0.090642,1,0,0
211,'2026/05/14 12:03:26:073',1,0.730909,0.923734,0,0.615495,0.429813,-0.075153,0.920756,0.558173,-0.091964,1,0,0
212,'2026/05/14 12:03:26:141',1,0.73086,0.923967,0,0.615565,0.429742,-0.075894,0.920898,0.558231,-0.09164,1,0,0
213,'2026/05/14 12:03:26:187',1,0.731498,0.925062,0,0.613642,0.432342,-0.075025,0.920954,0.559152,-0.09175,1,0,0
214,'2026/05/14 12:03:26:225',1,0.7307,0.925343,0,0.61329,0.430586,-0.074345,0.921681,0.558592,-0.091119,1,0,0
215,'2026/05/14 12:03:26:249',1,0.730543,0.92352,0,0.612752,0.432504,-0.074053,0.921136,0.558774,-0.09188,1,0,0
216,'2026/05/14 12:03:26:309',1,0.730717,0.921311,0,0.616443,0.432578,-0.074023,0.920982,0.559637,-0.094826,1,0,0
217,'2026/05/14 12:03:26:341',1,0.731366,0.923658,0,0.614104,0.43335,-0.07149,0.923828,0.559529,-0.092916,1,0,0
218,'2026/05/14 12:03:26:365',1,0.731792,0.921531,0,0.617247,0.430228,-0.07448,0.921347,0.560251,-0.09364,1,0,0
219,'2026/05/14 12:03:26:398',1,0.730956,0.923721,0,0.616923,0.429563,-0.077971,0.921407,0.558215,-0.094201,1,0,0
220,'2026/05/14 12:03:26:430',1,0.730383,0.924517,0,0.615975,0.429308,-0.073785,0.921911,0.55721,-0.090051,1,0,0
221,'2026/05/14 12:03:26:463',1,0.730688,0.921722,0,0.617273,0.432092,-0.070165,0.923194,0.559262,-0.093272,1,0,0
222,'2026/05/14 12:03:26:491',1,0.730704,0.925096,0,0.61547,0.429729,-0.072317,0.921872,0.557446,-0.089814,1,0,0
223,'2026/05/14 12:03:26:528',1,0.731275,0.92157,0,0.617588,0.430107,-0.073747,0.921167,0.559495,-0.093503,1,0,0
224,'2026/05/14 12:03:26:558',1,0.728453,0.924711,0,0.616718,0.428242,-0.079285,0.92097,0.558546,-0.093451,1,0,0
225,'2026/05/14 12:03:26:601',1,0.729947,0.925153,0,0.615191,0.4285,-0.075268,0.922062,0.557149,-0.090676,1,0,0
226,'2026/05/14 12:03:26:632',1,0.7314,0.924952,0,0.614367,0.430494,-0.073443,0.922231,0.559772,-0.09161,1,0,0
227,'2026/05/14 12:03:26:662',1,0.730838,0.925149,0,0.616412,0.427383,-0.073385,0.92163,0.55621,-0.089209,1,0,0
228,'2026/05/14 12:03:26:694',1,0.731968,0.925152,0,0.614875,0.428992,-0.077104,0.923061,0.557539,-0.092053,1,0,0
229,'2026/05/14 12:03:26:726',1,0.730979,0.924936,0,0.616881,0.427553,-0.074247,0.922618,0.55699,-0.091954,1,0,0
230,'2026/05/14 12:03:26:759',1,0.73236,0.926448,0,0.615887,0.429179,-0.074418,0.923114,0.557435,-0.090251,1,0,0
231,'2026/05/14 12:03:26:788',1,0.732474,0.926499,0,0.615743,0.428867,-0.076721,0.923464,0.55734,-0.091006,1,0,0
232,'2026/05/14 12:03:26:819',1,0.732477,0.925608,0,0.616122,0.429271,-0.073753,0.924508,0.558373,-0.090459,1,0,0
233,'2026/05/14 12:03:26:858',1,0.733213,0.9218,0,0.616623,0.429648,-0.074788,0.923304,0.557364,-0.092371,1,0,0
234,'2026/05/14 12:03:26:896',1,0.731058,0.925833,0,0.617777,0.428935,-0.080166,0.922665,0.557077,-0.093121,1,0,0
235,'2026/05/14 12:03:26:928',1,0.731757,0.925998,0,0.617204,0.429387,-0.077178,0.923233,0.556455,-0.091718,1,0,0
236,'2026/05/14 12:03:26:982',1,0.732627,0.924829,0,0.617283,0.428106,-0.078926,0.923654,0.556434,-0.093079,1,0,0
237,'2026/05/14 12:03:27:016',1,0.73151,0.926426,0,0.617027,0.429569,-0.076141,0.924449,0.558211,-0.091821,1,0,0
238,'2026/05/14 12:03:27:053',1,0.731714,0.926943,0,0.617252,0.427824,-0.080773,0.924864,0.55747,-0.093563,1,0,0
239,'2026/05/14 12:03:27:084',1,0.732222,0.925615,0,0.617703,0.429525,-0.076493,0.924426,0.55939,-0.092195,1,0,0
240,'2026/05/14 12:03:27:118',1,0.732441,0.924987,0,0.615903,0.428795,-0.077328,0.924363,0.556872,-0.093458,1,0,0
241,'2026/05/14 12:03:27:163',1,0.730681,0.924825,0,0.618147,0.428836,-0.076269,0.922258,0.558312,-0.091568,1,0,0
242,'2026/05/14 12:03:27:193',1,0.731943,0.924021,0,0.615047,0.431424,-0.075535,0.922285,0.559466,-0.091184,1,0,0
243,'2026/05/14 12:03:27:224',1,0.731867,0.924342,0,0.613625,0.431702,-0.075469,0.924166,0.558246,-0.091554,1,0,0
244,'2026/05/14 12:03:27:270',1,0.731381,0.924206,0,0.615594,0.431201,-0.074098,0.921946,0.558546,-0.088507,1,0,0
245,'2026/05/14 12:03:27:303',1,0.73195,0.921479,0,0.617671,0.428936,-0.075264,0.922223,0.558138,-0.091671,1,0,0
246,'2026/05/14 12:03:27:335',1,0.730704,0.924551,0,0.614324,0.432701,-0.074232,0.922798,0.559203,-0.091339,1,0,0
247,'2026/05/14 12:03:27:366',1,0.731286,0.922736,0,0.613992,0.432884,-0.074618,0.922609,0.55899,-0.091009,1,0,0
248,'2026/05/14 12:03:27:396',1,0.730494,0.923394,0,0.616269,0.429094,-0.075768,0.921872,0.558235,-0.091278,1,0,0
249,'2026/05/14 12:03:27:428',1,0.730984,0.923117,0,0.612953,0.43312,-0.075258,0.922337,0.559183,-0.092622,1,0,0
250,'2026/05/14 12:03:27:462',1,0.730315,0.92339,0,0.612709,0.433593,-0.074301,0.922065,0.557788,-0.093183,1,0,0
251,'2026/05/14 12:03:27:493',1,0.730141,0.924567,0,0.612506,0.433281,-0.071,0.922444,0.557757,-0.090441,1,0,0
252,'2026/05/14 12:03:27:525',1,0.730694,0.925906,0,0.612638,0.431574,-0.074643,0.921035,0.556433,-0.090037,1,0,0
253,'2026/05/14 12:03:27:567',1,0.73087,0.927098,0,0.611773,0.431829,-0.076622,0.92188,0.55755,-0.092488,1,0,0
254,'2026/05/14 12:03:27:612',1,0.73006,0.92443,0,0.612268,0.430447,-0.073535,0.920116,0.557859,-0.089985,1,0,0
255,'2026/05/14 12:03:27:654',1,0.731467,0.925898,0,0.613619,0.432,-0.072556,0.921309,0.556427,-0.090711,1,0,0
256,'2026/05/14 12:03:27:694',1,0.730091,0.924519,0,0.611582,0.433164,-0.070085,0.921062,0.55819,-0.089616,1,0,0
257,'2026/05/14 12:03:27:730',1,0.730568,0.923917,0,0.610958,0.43362,-0.074562,0.921129,0.558177,-0.092248,1,0,0
258,'2026/05/14 12:03:27:763',1,0.730261,0.924216,0,0.611641,0.433933,-0.070604,0.921602,0.558156,-0.090447,1,0,0
259,'2026/05/14 12:03:27:804',1,0.729999,0.924729,0,0.614112,0.431159,-0.075115,0.920513,0.55789,-0.090936,1,0,0
260,'2026/05/14 12:03:27:854',1,0.731053,0.923788,0,0.61314,0.434246,-0.072783,0.92059,0.557915,-0.089509,1,0,0
261,'2026/05/14 12:03:27:897',1,0.729892,0.924327,0,0.613383,0.430902,-0.077327,0.920882,0.558051,-0.092301,1,0,0
262,'2026/05/14 12:03:27:943',1,0.730951,0.923883,0,0.614141,0.430975,-0.073349,0.921039,0.55911,-0.090625,1,0,0
263,'2026/05/14 12:03:27:966',1,0.731575,0.922003,0,0.614636,0.430864,-0.073823,0.920883,0.558772,-0.090339,1,0,0
264,'2026/05/14 12:03:28:008',1,0.730534,0.917645,0,0.614553,0.434959,-0.073757,0.922728,0.558625,-0.093947,1,0,0
265,'2026/05/14 12:03:28:051',1,0.731723,0.920517,0,0.614535,0.434651,-0.07326,0.923008,0.558276,-0.093457,1,0,0
266,'2026/05/14 12:03:28:091',1,0.731966,0.924757,0,0.614705,0.434366,-0.073534,0.921243,0.557671,-0.090352,1,0,0
267,'2026/05/14 12:03:28:124',1,0.731541,0.921226,0,0.614005,0.435095,-0.074703,0.923479,0.559409,-0.09241,1,0,0
268,'2026/05/14 12:03:28:164',1,0.732074,0.920132,0,0.615634,0.434749,-0.069828,0.92376,0.558414,-0.090825,1,0,0
269,'2026/05/14 12:03:28:187',1,0.731646,0.922348,0,0.615739,0.433775,-0.073524,0.922669,0.559964,-0.090392,1,0,0
270,'2026/05/14 12:03:28:221',1,0.732192,0.922679,0,0.616442,0.434774,-0.071907,0.922701,0.559991,-0.09057,1,0,0
271,'2026/05/14 12:03:28:257',1,0.732418,0.921535,0,0.617958,0.431038,-0.07468,0.922599,0.560208,-0.091271,1,0,0
272,'2026/05/14 12:03:28:285',1,0.731778,0.92273,0,0.619036,0.430615,-0.074278,0.922252,0.558439,-0.089149,1,0,0
273,'2026/05/14 12:03:28:321',1,0.732207,0.924631,0,0.617684,0.431779,-0.074612,0.922725,0.558854,-0.090333,1,0,0
274,'2026/05/14 12:03:28:369',1,0.73286,0.921789,0,0.617701,0.432972,-0.071276,0.92228,0.559652,-0.089704,1,0,0
275,'2026/05/14 12:03:28:395',1,0.731833,0.919928,0,0.615074,0.433378,-0.072977,0.923483,0.557537,-0.091839,1,0,0
276,'2026/05/14 12:03:28:424',1,0.730926,0.919378,0,0.617111,0.43527,-0.072346,0.923334,0.558961,-0.092565,1,0,0
277,'2026/05/14 12:03:28:470',1,0.731411,0.921229,0,0.615376,0.434508,-0.072201,0.923115,0.560247,-0.091183,1,0,0
278,'2026/05/14 12:03:51:589',2,0.785983,0.876241,-0.000001,0.704745,0.728811,-0.056373,0.8008,0.734591,-0.017242,0,1,0
279,'2026/05/14 12:03:51:621',2,0.787293,0.876162,-0.000001,0.705368,0.729827,-0.053483,0.80071,0.734675,-0.016063,0,1,0
280,'2026/05/14 12:03:51:650',2,0.787398,0.874654,-0.000001,0.706882,0.730786,-0.0506,0.802326,0.734714,-0.016725,0,1,0
281,'2026/05/14 12:03:51:682',2,0.786591,0.873189,-0.000001,0.708777,0.730258,-0.054854,0.803262,0.734544,-0.016399,0,1,0
282,'2026/05/14 12:03:51:708',2,0.788305,0.876388,-0.000001,0.7096,0.73069,-0.054404,0.807503,0.734687,-0.018519,0,1,0
283,'2026/05/14 12:03:51:740',2,0.791121,0.877715,-0.000001,0.71142,0.730791,-0.052944,0.808874,0.73439,-0.017886,0,1,0
284,'2026/05/14 12:03:51:771',2,0.790364,0.876058,-0.000001,0.712674,0.731239,-0.055338,0.81021,0.734663,-0.019525,0,1,0
285,'2026/05/14 12:03:51:829',2,0.793231,0.872698,-0.000001,0.713547,0.731981,-0.050667,0.81025,0.735988,-0.015806,0,1,0
286,'2026/05/14 12:03:51:888',2,0.79222,0.874171,-0.000001,0.713821,0.732521,-0.052142,0.811461,0.735781,-0.01765,0,1,0
287,'2026/05/14 12:03:51:917',2,0.794057,0.873635,-0.000001,0.715755,0.733981,-0.051602,0.812607,0.735136,-0.013959,0,1,0
288,'2026/05/14 12:03:51:948',2,0.795657,0.874384,-0.000001,0.716321,0.732198,-0.05476,0.814205,0.735681,-0.01584,0,1,0
289,'2026/05/14 12:03:51:986',2,0.797347,0.874303,-0.000001,0.718603,0.732126,-0.053248,0.815395,0.735082,-0.015869,0,1,0
290,'2026/05/14 12:03:52:021',2,0.798291,0.871207,-0.000001,0.718588,0.730143,-0.053514,0.817253,0.735631,-0.016529,0,1,0
291,'2026/05/14 12:03:52:056',2,0.799492,0.871855,-0.000001,0.721217,0.729947,-0.055445,0.819583,0.735635,-0.016763,0,1,0
292,'2026/05/14 12:03:52:091',2,0.805164,0.872861,-0.000001,0.723003,0.728155,-0.052661,0.821991,0.734741,-0.015683,0,1,0
293,'2026/05/14 12:03:52:116',2,0.805681,0.872962,-0.000001,0.72773,0.727496,-0.05276,0.82303,0.735237,-0.017671,0,1,0
294,'2026/05/14 12:03:52:149',2,0.809357,0.873286,-0.000001,0.730283,0.727341,-0.054265,0.827276,0.732826,-0.017023,0,1,0
295,'2026/05/14 12:03:52:179',2,0.811332,0.872944,-0.000001,0.732271,0.726741,-0.054507,0.8308,0.733298,-0.014561,0,1,0
296,'2026/05/14 12:03:52:220',2,0.81388,0.872129,-0.000001,0.73408,0.726193,-0.053969,0.832737,0.734088,-0.013724,0,1,0
297,'2026/05/14 12:03:52:258',2,0.815086,0.871425,-0.000001,0.736687,0.726689,-0.057048,0.835367,0.733632,-0.016506,0,1,0
298,'2026/05/14 12:03:52:291',2,0.815782,0.87024,-0.000001,0.737157,0.725872,-0.052652,0.835507,0.735394,-0.016416,0,1,0
299,'2026/05/14 12:03:52:321',2,0.817671,0.872926,-0.000001,0.740534,0.72547,-0.050314,0.836931,0.734845,-0.012154,0,1,0
300,'2026/05/14 12:03:52:352',2,0.817882,0.873448,-0.000001,0.741004,0.726976,-0.052551,0.839074,0.734198,-0.016187,0,1,0
301,'2026/05/14 12:03:52:384',2,0.817373,0.871561,-0.000001,0.740044,0.727412,-0.052193,0.839112,0.736911,-0.015629,0,1,0
302,'2026/05/14 12:03:52:414',2,0.819249,0.874423,-0.000001,0.740111,0.728891,-0.051762,0.838252,0.736315,-0.013445,0,1,0
303,'2026/05/14 12:03:52:447',2,0.81953,0.873636,-0.000001,0.741344,0.729393,-0.051413,0.837998,0.737109,-0.014134,0,1,0
304,'2026/05/14 12:03:52:476',2,0.818525,0.874935,-0.000001,0.741584,0.728005,-0.053251,0.840018,0.736054,-0.015022,0,1,0
305,'2026/05/14 12:03:52:508',2,0.819118,0.873424,-0.000001,0.7413,0.728063,-0.054547,0.839729,0.736129,-0.016853,0,1,0
306,'2026/05/14 12:03:52:539',2,0.821095,0.872619,-0.000001,0.742348,0.726608,-0.056299,0.839188,0.735239,-0.017487,0,1,0
307,'2026/05/14 12:03:52:570',2,0.821868,0.87435,-0.000001,0.742283,0.723816,-0.058039,0.841097,0.733214,-0.015125,0,1,0
308,'2026/05/14 12:03:52:612',2,0.822001,0.875779,-0.000001,0.742335,0.720739,-0.062176,0.841864,0.733137,-0.018541,0,1,0
309,'2026/05/14 12:03:52:654',2,0.823226,0.874755,-0.000001,0.74274,0.721324,-0.0599,0.842298,0.732313,-0.016221,0,1,0
310,'2026/05/14 12:03:52:681',2,0.822165,0.875063,-0.000001,0.739864,0.724007,-0.056867,0.841818,0.731036,-0.013318,0,1,0
311,'2026/05/14 12:03:52:718',2,0.820717,0.878898,-0.000001,0.738449,0.724431,-0.058098,0.842656,0.731683,-0.015983,0,1,0
312,'2026/05/14 12:03:52:741',2,0.820767,0.876486,-0.000001,0.737135,0.722016,-0.063619,0.842459,0.730031,-0.018331,0,1,0
313,'2026/05/14 12:03:52:792',2,0.819658,0.87649,-0.000001,0.734836,0.722515,-0.065313,0.841304,0.729922,-0.019455,0,1,0
314,'2026/05/14 12:03:52:820',2,0.818569,0.876815,-0.000001,0.734167,0.722123,-0.066291,0.840481,0.730328,-0.019777,0,1,0
315,'2026/05/14 12:03:52:851',2,0.817149,0.878199,-0.000001,0.733144,0.723085,-0.066271,0.839515,0.730923,-0.020522,0,1,0
316,'2026/05/14 12:03:52:896',2,0.817536,0.880076,-0.000001,0.731286,0.7228,-0.066952,0.839115,0.730005,-0.020936,0,1,0
317,'2026/05/14 12:03:52:933',2,0.817418,0.880065,-0.000001,0.731269,0.722189,-0.06889,0.838499,0.730205,-0.021597,0,1,0
318,'2026/05/14 12:03:52:965',2,0.81668,0.880548,-0.000001,0.729452,0.724626,-0.067236,0.837439,0.729455,-0.023442,0,1,0
319,'2026/05/14 12:03:52:992',2,0.813489,0.880496,-0.000001,0.727234,0.722729,-0.072875,0.838061,0.730287,-0.023969,0,1,0
320,'2026/05/14 12:03:53:025',2,0.813863,0.880773,-0.000001,0.728363,0.722408,-0.072335,0.837999,0.729484,-0.024643,0,1,0
321,'2026/05/14 12:03:53:056',2,0.814049,0.881307,-0.000001,0.727421,0.720989,-0.07608,0.838957,0.728568,-0.024379,0,1,0
322,'2026/05/14 12:03:53:086',2,0.815339,0.882929,-0.000001,0.726552,0.719739,-0.0739,0.83878,0.728729,-0.021021,0,1,0
323,'2026/05/14 12:03:53:119',2,0.816048,0.880112,-0.000001,0.727861,0.721717,-0.071116,0.83862,0.729906,-0.023393,0,1,0
324,'2026/05/14 12:03:53:148',2,0.816533,0.881215,-0.000001,0.728306,0.720636,-0.071681,0.840145,0.728515,-0.021389,0,1,0
325,'2026/05/14 12:03:53:190',2,0.817437,0.881981,-0.000001,0.729329,0.721942,-0.070802,0.839794,0.728892,-0.020446,0,1,0
326,'2026/05/14 12:03:53:226',2,0.816922,0.879598,-0.000001,0.729595,0.721626,-0.073798,0.84048,0.729519,-0.021255,0,1,0
327,'2026/05/14 12:03:53:282',2,0.815169,0.880536,-0.000001,0.727964,0.720859,-0.074265,0.838402,0.729994,-0.022465,0,1,0
328,'2026/05/14 12:03:53:324',2,0.812097,0.881934,-0.000001,0.724517,0.722118,-0.073047,0.834953,0.729342,-0.024283,0,1,0
329,'2026/05/14 12:03:53:353',2,0.810489,0.883448,-0.000001,0.723368,0.723986,-0.073439,0.833394,0.730083,-0.024848,0,1,0
330,'2026/05/14 12:03:53:383',2,0.808927,0.880692,-0.000001,0.720237,0.723297,-0.075056,0.831444,0.729854,-0.024336,0,1,0
331,'2026/05/14 12:03:53:413',2,0.808421,0.881415,-0.000001,0.718888,0.724728,-0.07273,0.828907,0.731541,-0.023965,0,1,0
332,'2026/05/14 12:03:53:445',2,0.808349,0.881095,-0.000001,0.719725,0.725103,-0.073553,0.828783,0.731973,-0.023512,0,1,0
333,'2026/05/14 12:03:53:485',2,0.810663,0.881883,-0.000001,0.720181,0.725998,-0.070902,0.828972,0.731464,-0.024128,0,1,0
334,'2026/05/14 12:03:53:509',2,0.810103,0.881017,-0.000001,0.72043,0.724295,-0.075022,0.831544,0.729978,-0.024745,0,1,0
335,'2026/05/14 12:03:53:542',2,0.810875,0.880753,-0.000001,0.723157,0.722644,-0.075833,0.833395,0.729806,-0.023695,0,1,0
336,'2026/05/14 12:03:53:572',2,0.81162,0.879297,-0.000001,0.723649,0.721763,-0.074212,0.833421,0.729128,-0.022926,0,1,0
337,'2026/05/14 12:03:53:619',2,0.812721,0.879912,-0.000001,0.724772,0.722801,-0.076091,0.835638,0.729336,-0.025961,0,1,0
338,'2026/05/14 12:03:53:656',2,0.813146,0.879365,-0.000001,0.725176,0.721926,-0.074193,0.835177,0.729498,-0.022371,0,1,0
339,'2026/05/14 12:03:53:681',2,0.813607,0.879318,-0.000001,0.726214,0.722163,-0.073779,0.836273,0.729207,-0.023235,0,1,0
340,'2026/05/14 12:03:53:710',2,0.812441,0.879594,-0.000001,0.72509,0.72295,-0.072185,0.835644,0.729858,-0.023184,0,1,0
341,'2026/05/14 12:03:53:742',2,0.81422,0.881022,-0.000001,0.726701,0.723083,-0.073028,0.836705,0.730381,-0.022827,0,1,0
342,'2026/05/14 12:03:53:772',2,0.813567,0.879869,-0.000001,0.725381,0.722381,-0.071098,0.835942,0.731135,-0.022353,0,1,0
343,'2026/05/14 12:03:53:804',2,0.814072,0.881456,-0.000001,0.726662,0.722685,-0.074376,0.836764,0.730705,-0.023368,0,1,0
344,'2026/05/14 12:03:53:835',2,0.814393,0.879342,-0.000001,0.725834,0.720868,-0.072398,0.836297,0.729518,-0.02226,0,1,0
345,'2026/05/14 12:03:53:869',2,0.813951,0.881343,-0.000001,0.726342,0.721678,-0.072461,0.836365,0.730422,-0.021287,0,1,0
346,'2026/05/14 12:03:53:898',2,0.812808,0.879675,-0.000001,0.726389,0.721221,-0.074062,0.835493,0.72923,-0.022991,0,1,0
347,'2026/05/14 12:03:53:931',2,0.814303,0.879158,-0.000001,0.726368,0.722605,-0.071734,0.835266,0.730883,-0.021109,0,1,0
348,'2026/05/14 12:03:53:973',2,0.813405,0.879564,-0.000001,0.725843,0.721598,-0.072512,0.834958,0.729729,-0.023385,0,1,0
349,'2026/05/14 12:03:54:015',2,0.813367,0.879131,-0.000001,0.726343,0.72173,-0.073636,0.836442,0.729897,-0.025112,0,1,0
350,'2026/05/14 12:03:54:059',2,0.812658,0.880385,-0.000001,0.726342,0.722099,-0.074278,0.836408,0.730198,-0.024682,0,1,0
351,'2026/05/14 12:03:54:092',2,0.814334,0.879011,-0.000001,0.726433,0.723144,-0.070925,0.83569,0.731045,-0.022845,0,1,0
352,'2026/05/14 12:03:54:125',2,0.812724,0.88027,-0.000001,0.725826,0.721703,-0.07167,0.836537,0.730096,-0.022813,0,1,0
353,'2026/05/14 12:03:54:150',2,0.812829,0.881079,-0.000001,0.726275,0.722298,-0.072431,0.83584,0.730991,-0.023164,0,1,0
354,'2026/05/14 12:03:54:186',2,0.81381,0.881784,-0.000001,0.726475,0.723305,-0.06919,0.836378,0.730474,-0.02298,0,1,0
355,'2026/05/14 12:03:54:216',2,0.813001,0.881877,-0.000001,0.726259,0.723911,-0.071309,0.836231,0.729922,-0.023727,0,1,0
356,'2026/05/14 12:03:54:248',2,0.812822,0.881282,-0.000001,0.72542,0.723143,-0.073444,0.835716,0.729916,-0.024404,0,1,0
357,'2026/05/14 12:03:54:287',2,0.813218,0.88002,-0.000001,0.725295,0.723486,-0.072343,0.835404,0.730432,-0.024685,0,1,0
358,'2026/05/14 12:03:54:310',2,0.812404,0.879001,-0.000001,0.725409,0.724437,-0.073945,0.833883,0.730694,-0.02485,0,1,0
359,'2026/05/14 12:03:54:344',2,0.81255,0.880958,-0.000001,0.724672,0.725743,-0.072245,0.834308,0.7311,-0.025293,0,1,0
360,'2026/05/14 12:03:54:375',2,0.811508,0.879569,-0.000001,0.724581,0.722888,-0.074983,0.834329,0.730234,-0.024539,0,1,0
361,'2026/05/14 12:03:54:408',2,0.811659,0.880923,-0.000001,0.72321,0.722906,-0.073796,0.833581,0.73034,-0.023901,0,1,0
362,'2026/05/14 12:03:54:440',2,0.812289,0.880497,-0.000001,0.72448,0.725108,-0.07331,0.832523,0.732269,-0.0253,0,1,0
363,'2026/05/14 12:03:54:469',2,0.812019,0.879301,-0.000001,0.723306,0.722264,-0.075805,0.832891,0.729586,-0.023411,0,1,0
364,'2026/05/14 12:03:54:501',2,0.81035,0.88085,-0.000001,0.723627,0.723856,-0.074235,0.833934,0.730619,-0.025969,0,1,0
365,'2026/05/14 12:03:54:532',2,0.810897,0.879959,-0.000001,0.722608,0.722516,-0.074597,0.832583,0.729111,-0.024534,0,1,0
366,'2026/05/14 12:03:54:564',2,0.811145,0.880773,-0.000001,0.722907,0.723102,-0.077441,0.834184,0.729284,-0.024898,0,1,0
367,'2026/05/14 12:03:54:594',2,0.811138,0.879064,-0.000001,0.722314,0.721546,-0.075081,0.832399,0.729599,-0.024683,0,1,0
368,'2026/05/14 12:03:54:627',2,0.811287,0.879494,-0.000001,0.722982,0.722313,-0.073831,0.832619,0.7302,-0.023907,0,1,0
369,'2026/05/14 12:03:54:658',2,0.810741,0.880007,-0.000001,0.723579,0.722264,-0.075673,0.833227,0.72935,-0.025082,0,1,0
370,'2026/05/14 12:03:54:690',2,0.811104,0.879157,-0.000001,0.723685,0.723184,-0.073232,0.83285,0.730446,-0.023204,0,1,0
371,'2026/05/14 12:03:54:722',2,0.812241,0.881132,-0.000001,0.724882,0.722157,-0.071718,0.835241,0.73062,-0.022598,0,1,0
372,'2026/05/14 12:03:54:762',2,0.812306,0.879938,-0.000001,0.725264,0.720932,-0.075757,0.835599,0.72935,-0.024935,0,1,0
373,'2026/05/14 12:03:54:785',2,0.812516,0.879504,-0.000001,0.725772,0.721661,-0.074787,0.835228,0.731703,-0.02579,0,1,0
374,'2026/05/14 12:03:54:816',2,0.813039,0.878966,-0.000001,0.725416,0.721893,-0.073987,0.835619,0.730929,-0.025053,0,1,0
375,'2026/05/14 12:03:54:858',2,0.812861,0.878798,-0.000001,0.726163,0.72173,-0.073858,0.835291,0.73112,-0.022335,0,1,0
376,'2026/05/14 12:03:54:895',2,0.812725,0.879464,-0.000001,0.726188,0.720863,-0.075198,0.83668,0.729545,-0.023047,0,1,0
377,'2026/05/14 12:03:54:946',2,0.813128,0.879596,-0.000001,0.726202,0.721376,-0.07243,0.835099,0.730982,-0.023319,0,1,0
378,'2026/05/14 12:03:54:977',2,0.811606,0.880032,-0.000001,0.72621,0.721491,-0.076149,0.836747,0.730798,-0.026128,0,1,0
379,'2026/05/14 12:03:55:003',2,0.812587,0.879793,-0.000001,0.726117,0.722358,-0.075582,0.836472,0.730471,-0.024506,0,1,0
380,'2026/05/14 12:03:55:034',2,0.812444,0.880642,-0.000001,0.726133,0.721574,-0.072236,0.835653,0.730549,-0.023436,0,1,0
381,'2026/05/14 12:03:55:066',2,0.81213,0.878961,-0.000001,0.726057,0.721304,-0.074775,0.835188,0.730559,-0.024916,0,1,0
382,'2026/05/14 12:03:55:112',2,0.812923,0.880219,-0.000001,0.726331,0.721374,-0.074362,0.835626,0.730883,-0.024083,0,1,0
383,'2026/05/14 12:03:55:150',2,0.812971,0.879961,-0.000001,0.725857,0.721073,-0.07524,0.835952,0.729725,-0.024336,0,1,0
384,'2026/05/14 12:03:55:193',2,0.812977,0.880518,-0.000001,0.726387,0.721902,-0.074073,0.836109,0.730264,-0.023204,0,1,0
385,'2026/05/14 12:03:55:227',2,0.812607,0.879074,-0.000001,0.7263,0.721686,-0.072881,0.836124,0.73088,-0.024511,0,1,0
386,'2026/05/14 12:03:55:268',2,0.812891,0.880174,-0.000001,0.727388,0.721207,-0.074612,0.836338,0.729976,-0.023385,0,1,0
387,'2026/05/14 12:03:55:303',2,0.812615,0.8788,-0.000001,0.726404,0.722798,-0.071735,0.834703,0.731283,-0.021825,0,1,0
388,'2026/05/14 12:03:55:336',2,0.812591,0.879637,-0.000001,0.725675,0.721265,-0.073749,0.83578,0.731,-0.024012,0,1,0
389,'2026/05/14 12:03:55:366',2,0.812416,0.87892,-0.000001,0.725628,0.720255,-0.074929,0.835726,0.731185,-0.025603,0,1,0
390,'2026/05/14 12:03:55:398',2,0.812069,0.880334,-0.000001,0.72584,0.721985,-0.074052,0.836012,0.731283,-0.024313,0,1,0
391,'2026/05/14 12:03:55:430',2,0.81279,0.881323,-0.000001,0.725647,0.720364,-0.076465,0.836754,0.731297,-0.024411,0,1,0
392,'2026/05/14 12:03:55:461',2,0.812308,0.880049,-0.000001,0.726209,0.721113,-0.073257,0.835644,0.730699,-0.021924,0,1,0
393,'2026/05/14 12:03:55:493',2,0.812464,0.879768,-0.000001,0.725986,0.721619,-0.071443,0.836789,0.731321,-0.022404,0,1,0
394,'2026/05/14 12:03:55:542',2,0.812427,0.879075,-0.000001,0.72574,0.72088,-0.07375,0.834982,0.730852,-0.023605,0,1,0
395,'2026/05/14 12:03:55:571',2,0.812133,0.880584,-0.000001,0.72571,0.722741,-0.07348,0.836425,0.731864,-0.024419,0,1,0
396,'2026/05/14 12:03:55:603',2,0.812297,0.880568,-0.000001,0.726113,0.722193,-0.075184,0.836418,0.730904,-0.023335,0,1,0
397,'2026/05/14 12:03:55:635',2,0.812076,0.880594,-0.000001,0.726127,0.722449,-0.074598,0.836897,0.731166,-0.023647,0,1,0
398,'2026/05/14 12:03:55:671',2,0.812426,0.878731,-0.000001,0.725947,0.721969,-0.073778,0.835479,0.730961,-0.023985,0,1,0
399,'2026/05/14 12:03:55:714',2,0.811438,0.878792,-0.000001,0.726207,0.721145,-0.072069,0.835828,0.730743,-0.022906,0,1,0
400,'2026/05/14 12:03:55:761',2,0.813172,0.879829,-0.000001,0.726857,0.721219,-0.076435,0.836575,0.730127,-0.024002,0,1,0
401,'2026/05/14 12:03:55:819',2,0.812095,0.880177,-0.000001,0.726148,0.721667,-0.075271,0.836318,0.730747,-0.023313,0,1,0
402,'2026/05/14 12:03:55:857',2,0.81242,0.87855,-0.000001,0.726523,0.721568,-0.073853,0.835891,0.730012,-0.025291,0,1,0
403,'2026/05/14 12:03:55:916',2,0.81332,0.879642,-0.000001,0.726699,0.721361,-0.073256,0.836621,0.731567,-0.024504,0,1,0
404,'2026/05/14 12:03:55:954',2,0.813534,0.878044,-0.000001,0.726402,0.722004,-0.069488,0.835104,0.731847,-0.020154,0,1,0
405,'2026/05/14 12:03:55:984',2,0.811593,0.87974,-0.000001,0.726524,0.71969,-0.07388,0.836524,0.730939,-0.023817,0,1,0
406,'2026/05/14 12:03:56:033',2,0.811469,0.878402,-0.000001,0.726226,0.720402,-0.071961,0.835682,0.73172,-0.023839,0,1,0
407,'2026/05/14 12:03:56:066',2,0.812392,0.880389,-0.000001,0.7269,0.722673,-0.075064,0.835769,0.731862,-0.023734,0,1,0
408,'2026/05/14 12:03:56:096',2,0.811139,0.880445,-0.000001,0.726115,0.721924,-0.075414,0.835448,0.732036,-0.024208,0,1,0
409,'2026/05/14 12:03:56:137',2,0.811232,0.881278,-0.000001,0.726233,0.723797,-0.073693,0.835559,0.732024,-0.023423,0,1,0
410,'2026/05/14 12:03:56:174',2,0.812235,0.880242,-0.000001,0.725369,0.721598,-0.07553,0.835809,0.729848,-0.023629,0,1,0
411,'2026/05/14 12:03:56:215',2,0.812532,0.878607,-0.000001,0.725887,0.72106,-0.07332,0.834959,0.730723,-0.024288,0,1,0
412,'2026/05/14 12:03:56:239',2,0.811483,0.878571,-0.000001,0.725889,0.720608,-0.072607,0.834233,0.73109,-0.020475,0,1,0
413,'2026/05/14 12:03:56:271',2,0.812876,0.879344,-0.000001,0.7259,0.720379,-0.074801,0.835287,0.729966,-0.023145,0,1,0
414,'2026/05/14 12:03:56:302',2,0.812251,0.880364,-0.000001,0.726207,0.722527,-0.072815,0.836113,0.731293,-0.023001,0,1,0
415,'2026/05/14 12:03:56:333',2,0.811574,0.878849,-0.000001,0.726561,0.722395,-0.071343,0.836351,0.730866,-0.02309,0,1,0
416,'2026/05/14 12:03:56:366',2,0.813675,0.880663,-0.000001,0.727738,0.724145,-0.068873,0.836412,0.732224,-0.020756,0,1,0
417,'2026/05/14 12:03:56:405',2,0.813305,0.878976,-0.000001,0.727528,0.722303,-0.071619,0.835667,0.73192,-0.022407,0,1,0
418,'2026/05/14 12:03:56:448',2,0.811709,0.878315,-0.000001,0.726041,0.723592,-0.069977,0.836101,0.732631,-0.021903,0,1,0
419,'2026/05/14 12:03:56:499',2,0.812411,0.878083,-0.000001,0.726707,0.721503,-0.072767,0.836447,0.730582,-0.023506,0,1,0
420,'2026/05/14 12:03:56:557',2,0.812588,0.878785,-0.000001,0.726719,0.72261,-0.071578,0.836468,0.730315,-0.02456,0,1,0
421,'2026/05/14 12:03:56:587',2,0.813857,0.878979,-0.000001,0.727847,0.721507,-0.072684,0.836865,0.731792,-0.023673,0,1,0
422,'2026/05/14 12:03:56:640',2,0.815816,0.878817,-0.000001,0.729262,0.721938,-0.072462,0.838097,0.730927,-0.022009,0,1,0
423,'2026/05/14 12:03:56:677',2,0.814689,0.879362,-0.000001,0.729265,0.721577,-0.070477,0.837972,0.732221,-0.022981,0,1,0
424,'2026/05/14 12:03:56:710',2,0.815571,0.879391,-0.000001,0.729563,0.724248,-0.066632,0.838266,0.731739,-0.022161,0,1,0
425,'2026/05/14 12:03:56:740',2,0.815968,0.879896,-0.000001,0.729399,0.721322,-0.069467,0.837779,0.73115,-0.019285,0,1,0
426,'2026/05/14 12:03:56:772',2,0.814875,0.879983,-0.000001,0.729302,0.72247,-0.069395,0.838813,0.7316,-0.019733,0,1,0
427,'2026/05/14 12:03:56:808',2,0.814687,0.879682,-0.000001,0.729455,0.721182,-0.072697,0.838228,0.730732,-0.021911,0,1,0
428,'2026/05/14 12:03:56:835',2,0.81471,0.879037,-0.000001,0.728439,0.721168,-0.072268,0.838683,0.730618,-0.021839,0,1,0
429,'2026/05/14 12:03:56:892',2,0.815513,0.878953,-0.000001,0.729065,0.7247,-0.06974,0.837299,0.730523,-0.023415,0,1,0
430,'2026/05/14 12:03:56:930',2,0.814583,0.879672,-0.000001,0.729873,0.7248,-0.068874,0.83755,0.73076,-0.022528,0,1,0
431,'2026/05/14 12:03:56:961',2,0.814158,0.879583,-0.000001,0.728757,0.720789,-0.071868,0.839004,0.730196,-0.023026,0,1,0
432,'2026/05/14 12:03:56:992',2,0.814371,0.879004,-0.000001,0.728653,0.721004,-0.07297,0.838796,0.730768,-0.023326,0,1,0
433,'2026/05/14 12:03:57:025',2,0.81326,0.87968,-0.000001,0.728901,0.722065,-0.071644,0.838309,0.731462,-0.023834,0,1,0
434,'2026/05/14 12:03:57:080',2,0.81484,0.878836,-0.000001,0.730032,0.723926,-0.071467,0.838254,0.730831,-0.021637,0,1,0
435,'2026/05/14 12:03:57:106',2,0.81336,0.879012,-0.000001,0.728989,0.723626,-0.071051,0.837878,0.732092,-0.024555,0,1,0
436,'2026/05/14 12:03:57:134',2,0.816189,0.878802,-0.000001,0.730136,0.723996,-0.068817,0.837577,0.731852,-0.019716,0,1,0
437,'2026/05/14 12:03:57:165',2,0.813962,0.877837,-0.000001,0.729789,0.724302,-0.068739,0.838413,0.730685,-0.022899,0,1,0
438,'2026/05/14 12:03:57:197',2,0.816026,0.87974,-0.000001,0.729852,0.721966,-0.07076,0.839245,0.730995,-0.02207,0,1,0
439,'2026/05/14 12:03:57:231',2,0.816455,0.879864,-0.000001,0.729998,0.720442,-0.072129,0.840259,0.7309,-0.021464,0,1,0
440,'2026/05/14 12:03:57:270',2,0.816885,0.879685,-0.000001,0.731016,0.719321,-0.070391,0.840412,0.729109,-0.020201,0,1,0
441,'2026/05/14 12:03:57:320',2,0.815809,0.878855,-0.000001,0.730632,0.721645,-0.072869,0.840778,0.730598,-0.02265,0,1,0
442,'2026/05/14 12:03:57:356',2,0.817305,0.878875,-0.000001,0.731493,0.720839,-0.071443,0.840662,0.730518,-0.021713,0,1,0
443,'2026/05/14 12:03:57:385',2,0.81513,0.878465,-0.000001,0.731497,0.722363,-0.072605,0.839962,0.731238,-0.024522,0,1,0
444,'2026/05/14 12:03:57:419',2,0.816588,0.878694,-0.000001,0.731815,0.721411,-0.065881,0.839967,0.732069,-0.021413,0,1,0
445,'2026/05/14 12:03:57:451',2,0.814782,0.877159,-0.000001,0.730932,0.722777,-0.071268,0.840263,0.730674,-0.023394,0,1,0
446,'2026/05/14 12:03:57:482',2,0.816726,0.879857,-0.000001,0.731741,0.720311,-0.07312,0.840318,0.73031,-0.022806,0,1,0
447,'2026/05/14 12:03:57:512',2,0.815813,0.877935,-0.000001,0.732202,0.721527,-0.072659,0.840338,0.731901,-0.023479,0,1,0
448,'2026/05/14 12:03:57:545',2,0.816103,0.878785,-0.000001,0.732433,0.72121,-0.070965,0.84095,0.730615,-0.02202,0,1,0
449,'2026/05/14 12:03:57:574',2,0.815739,0.879278,-0.000001,0.73156,0.720375,-0.070722,0.840283,0.731187,-0.023354,0,1,0
450,'2026/05/14 12:03:57:605',2,0.81672,0.878137,-0.000001,0.733095,0.720567,-0.071503,0.841267,0.730971,-0.023573,0,1,0
451,'2026/05/14 12:03:57:636',2,0.818381,0.877981,-0.000001,0.732673,0.721004,-0.071024,0.841427,0.731378,-0.022879,0,1,0
452,'2026/05/14 12:03:57:687',2,0.817742,0.877601,-0.000001,0.73338,0.721069,-0.069936,0.841296,0.732365,-0.021032,0,1,0
453,'2026/05/14 12:03:57:715',2,0.818742,0.87583,-0.000001,0.734758,0.720086,-0.071345,0.841304,0.729651,-0.020019,0,1,0
454,'2026/05/14 12:03:57:746',2,0.818325,0.877284,-0.000001,0.735052,0.722336,-0.073826,0.844018,0.732083,-0.024043,0,1,0
455,'2026/05/14 12:03:57:780',2,0.818694,0.877999,-0.000001,0.735518,0.721802,-0.072159,0.844622,0.731577,-0.023323,0,1,0
456,'2026/05/14 12:03:57:812',2,0.82008,0.877889,-0.000001,0.737279,0.723654,-0.071094,0.845441,0.73149,-0.021672,0,1,0
457,'2026/05/14 12:03:57:841',2,0.821959,0.877694,-0.000001,0.736958,0.721524,-0.067871,0.844572,0.731981,-0.018929,0,1,0
458,'2026/05/14 12:03:57:874',2,0.82165,0.876917,-0.000001,0.737819,0.720183,-0.064031,0.84442,0.732106,-0.019404,0,1,0
459,'2026/05/14 12:03:57:906',2,0.82128,0.876152,-0.000001,0.737804,0.719072,-0.065743,0.844258,0.731461,-0.018146,0,1,0
460,'2026/05/14 12:03:57:937',2,0.821533,0.877758,-0.000001,0.738653,0.720975,-0.064703,0.845517,0.731591,-0.02052,0,1,0
461,'2026/05/14 12:03:57:967',2,0.821021,0.875671,-0.000001,0.736962,0.719,-0.064233,0.843499,0.732974,-0.019114,0,1,0
462,'2026/05/14 12:03:58:000',2,0.821382,0.875586,-0.000001,0.738055,0.718976,-0.06152,0.845289,0.730585,-0.01692,0,1,0
463,'2026/05/14 12:03:58:029',2,0.82229,0.877377,-0.000001,0.736963,0.718088,-0.062744,0.844345,0.732587,-0.017426,0,1,0
464,'2026/05/14 12:03:58:071',2,0.822343,0.87568,-0.000001,0.737868,0.719917,-0.065905,0.845375,0.732568,-0.019922,0,1,0
465,'2026/05/14 12:03:58:122',2,0.822852,0.876242,-0.000001,0.738164,0.720481,-0.065578,0.845205,0.732696,-0.018971,0,1,0
466,'2026/05/14 12:03:58:164',2,0.821805,0.875009,-0.000001,0.736373,0.717663,-0.063889,0.844338,0.733015,-0.020578,0,1,0
467,'2026/05/14 12:03:58:188',2,0.820478,0.874716,-0.000001,0.738226,0.719466,-0.067415,0.84553,0.731758,-0.022913,0,1,0
468,'2026/05/14 12:03:58:228',2,0.823218,0.875532,-0.000001,0.73771,0.714162,-0.06714,0.846296,0.730888,-0.020346,0,1,0
469,'2026/05/14 12:03:58:252',2,0.824508,0.876031,-0.000001,0.739953,0.715051,-0.066362,0.846775,0.73172,-0.020246,0,1,0
470,'2026/05/14 12:03:58:282',2,0.825274,0.876514,-0.000001,0.740169,0.720451,-0.063823,0.847602,0.732741,-0.019709,0,1,0
471,'2026/05/14 12:03:58:314',2,0.825345,0.874984,-0.000001,0.741674,0.714583,-0.064174,0.84768,0.729934,-0.021432,0,1,0
472,'2026/05/14 12:03:58:348',2,0.825593,0.87331,-0.000001,0.740844,0.717719,-0.067536,0.846875,0.731802,-0.023096,0,1,0
473,'2026/05/14 12:03:58:379',2,0.828904,0.875812,-0.000001,0.744483,0.715645,-0.070519,0.850959,0.731249,-0.024187,0,1,0
474,'2026/05/14 12:03:58:428',2,0.829648,0.874271,-0.000001,0.746277,0.713743,-0.068658,0.851837,0.730342,-0.021015,0,1,0
475,'2026/05/14 12:03:58:457',2,0.830842,0.874858,-0.000001,0.74794,0.714529,-0.067281,0.852998,0.731585,-0.021097,0,1,0
476,'2026/05/14 12:03:58:497',2,0.830284,0.873481,-0.000001,0.750102,0.716853,-0.065389,0.853301,0.732314,-0.021502,0,1,0
477,'2026/05/14 12:03:58:543',2,0.831348,0.873819,-0.000001,0.752075,0.71681,-0.064352,0.855024,0.731654,-0.018986,0,1,0
478,'2026/05/14 12:03:58:567',2,0.834046,0.875033,-0.000001,0.753171,0.714956,-0.065167,0.856298,0.731845,-0.02032,0,1,0
479,'2026/05/14 12:03:58:599',2,0.83496,0.87436,-0.000001,0.75546,0.717551,-0.066519,0.856387,0.733808,-0.019618,0,1,0
480,'2026/05/14 12:03:58:630',2,0.835245,0.873307,-0.000001,0.756512,0.719639,-0.065435,0.857125,0.732745,-0.018563,0,1,0
481,'2026/05/14 12:03:58:662',2,0.832894,0.873204,-0.000001,0.75414,0.71837,-0.061423,0.855553,0.734042,-0.01971,0,1,0
482,'2026/05/14 12:03:58:696',2,0.834043,0.874609,-0.000001,0.75569,0.718731,-0.062605,0.856024,0.733816,-0.019489,0,1,0
483,'2026/05/14 12:03:58:727',2,0.830821,0.872348,-0.000001,0.75307,0.717795,-0.059516,0.85372,0.73365,-0.019531,0,1,0
484,'2026/05/14 12:03:58:757',2,0.829367,0.87373,-0.000001,0.750012,0.718823,-0.060251,0.8525,0.73556,-0.018652,0,1,0
485,'2026/05/14 12:03:58:788',2,0.831266,0.875086,-0.000001,0.750899,0.721044,-0.060568,0.851428,0.736883,-0.017685,0,1,0
486,'2026/05/14 12:03:58:821',2,0.830192,0.874737,-0.000001,0.7505,0.722813,-0.062019,0.851643,0.73782,-0.017673,0,1,0
487,'2026/05/14 12:03:58:852',2,0.828438,0.873391,-0.000001,0.74885,0.722835,-0.059587,0.847354,0.738243,-0.017332,0,1,0
488,'2026/05/14 12:03:58:888',2,0.825202,0.871828,-0.000001,0.748332,0.725399,-0.057212,0.846927,0.736477,-0.016616,0,1,0
489,'2026/05/14 12:03:58:914',2,0.823668,0.873812,-0.000001,0.746013,0.72625,-0.058217,0.846357,0.738018,-0.018013,0,1,0
490,'2026/05/14 12:03:58:945',2,0.82499,0.874714,-0.000001,0.745679,0.723917,-0.056165,0.844967,0.738227,-0.014893,0,1,0
491,'2026/05/14 12:03:58:985',2,0.823978,0.87616,-0.000001,0.745415,0.723739,-0.056683,0.844228,0.736525,-0.015475,0,1,0
492,'2026/05/14 12:03:59:023',2,0.82453,0.875726,-0.000001,0.745851,0.723871,-0.055042,0.844417,0.737439,-0.015187,0,1,0
493,'2026/05/14 12:03:59:055',2,0.825507,0.873702,-0.000001,0.746558,0.724507,-0.056289,0.846074,0.737621,-0.016819,0,1,0
494,'2026/05/14 12:03:59:086',2,0.825428,0.872967,-0.000001,0.746645,0.724557,-0.05739,0.848111,0.736001,-0.015946,0,1,0
495,'2026/05/14 12:03:59:117',2,0.828388,0.873669,-0.000001,0.748269,0.72429,-0.056979,0.849083,0.737059,-0.016084,0,1,0
496,'2026/05/14 12:03:59:148',2,0.829144,0.873308,-0.000001,0.749724,0.721589,-0.057756,0.850389,0.73607,-0.018273,0,1,0
497,'2026/05/14 12:03:59:180',2,0.831475,0.873975,-0.000001,0.752484,0.721107,-0.062636,0.853363,0.734241,-0.016386,0,1,0
498,'2026/05/14 12:03:59:215',2,0.830137,0.870536,-0.000001,0.75172,0.722127,-0.059432,0.853544,0.735459,-0.017814,0,1,0
499,'2026/05/14 12:03:59:243',2,0.830579,0.870617,-0.000001,0.749736,0.719585,-0.059009,0.853264,0.735262,-0.018316,0,1,0
500,'2026/05/14 12:03:59:275',2,0.830961,0.871654,-0.000001,0.750952,0.720815,-0.059112,0.853194,0.73406,-0.016897,0,1,0
501,'2026/05/14 12:03:59:307',2,0.828552,0.870825,-0.000001,0.749593,0.723638,-0.062158,0.851942,0.734806,-0.018723,0,1,0
502,'2026/05/14 12:03:59:342',2,0.826235,0.872146,-0.000001,0.746969,0.719506,-0.058573,0.848469,0.734504,-0.018417,0,1,0
503,'2026/05/14 12:03:59:372',2,0.824787,0.872811,-0.000001,0.745268,0.723606,-0.059953,0.848024,0.734021,-0.019903,0,1,0
504,'2026/05/14 12:03:59:402',2,0.822317,0.874203,-0.000001,0.743604,0.720286,-0.059896,0.844442,0.73435,-0.019345,0,1,0
505,'2026/05/14 12:03:59:434',2,0.821381,0.875476,-0.000001,0.743601,0.720108,-0.061058,0.841089,0.733423,-0.015875,0,1,0
506,'2026/05/14 12:03:59:467',2,0.819745,0.876012,-0.000001,0.739948,0.721747,-0.060455,0.840461,0.733779,-0.017265,0,1,0
507,'2026/05/14 12:03:59:496',2,0.815444,0.873366,-0.000001,0.736139,0.724319,-0.061535,0.837966,0.734972,-0.018717,0,1,0
508,'2026/05/14 12:03:59:527',2,0.812369,0.872413,-0.000001,0.733049,0.725152,-0.061504,0.83557,0.734726,-0.018472,0,1,0
509,'2026/05/14 12:03:59:560',2,0.812102,0.874759,-0.000001,0.730929,0.723713,-0.058633,0.832698,0.73572,-0.019995,0,1,0
510,'2026/05/14 12:03:59:591',2,0.810873,0.874191,-0.000001,0.730302,0.725118,-0.059828,0.831579,0.734462,-0.017599,0,1,0
511,'2026/05/14 12:03:59:622',2,0.809781,0.876614,-0.000001,0.729779,0.725527,-0.059511,0.830309,0.735971,-0.018797,0,1,0
512,'2026/05/14 12:03:59:668',2,0.808138,0.878253,-0.000001,0.726811,0.725655,-0.059855,0.829531,0.734942,-0.017584,0,1,0
513,'2026/05/14 12:03:59:704',2,0.807659,0.878083,-0.000001,0.728104,0.728742,-0.061564,0.829158,0.734514,-0.017836,0,1,0
514,'2026/05/14 12:03:59:734',2,0.807399,0.877838,-0.000001,0.726228,0.72541,-0.060131,0.828421,0.734917,-0.015605,0,1,0
515,'2026/05/14 12:03:59:766',2,0.807018,0.878762,-0.000001,0.726691,0.724516,-0.061866,0.827459,0.734672,-0.017775,0,1,0
516,'2026/05/14 12:03:59:796',2,0.807503,0.879495,-0.000001,0.726843,0.725079,-0.063564,0.827603,0.734372,-0.017029,0,1,0
517,'2026/05/14 12:03:59:828',2,0.807321,0.880214,-0.000001,0.727482,0.723364,-0.063258,0.82722,0.734642,-0.01922,0,1,0
518,'2026/05/14 12:03:59:866',2,0.805847,0.87746,-0.000001,0.72603,0.723801,-0.062433,0.82769,0.733409,-0.01681,0,1,0
519,'2026/05/14 12:03:59:901',2,0.806896,0.877756,-0.000001,0.726493,0.726187,-0.061468,0.828384,0.732902,-0.016743,0,1,0
520,'2026/05/14 12:03:59:925',2,0.805832,0.877255,-0.000001,0.725497,0.725771,-0.061725,0.826967,0.735813,-0.017062,0,1,0
521,'2026/05/14 12:03:59:957',2,0.806369,0.877266,-0.000001,0.724797,0.725556,-0.062744,0.828354,0.734075,-0.016941,0,1,0
522,'2026/05/14 12:03:59:997',2,0.806733,0.878365,-0.000001,0.726108,0.725953,-0.061724,0.827484,0.734668,-0.015935,0,1,0
523,'2026/05/14 12:04:00:036',2,0.805849,0.877882,-0.000001,0.724533,0.726831,-0.065096,0.827822,0.734017,-0.018095,0,1,0
524,'2026/05/14 12:04:00:086',2,0.804829,0.879013,-0.000001,0.723333,0.724099,-0.06053,0.826806,0.733377,-0.015395,0,1,0
525,'2026/05/14 12:04:00:138',2,0.80648,0.878802,-0.000001,0.725013,0.72671,-0.061967,0.826705,0.733915,-0.015517,0,1,0
526,'2026/05/14 12:04:00:163',2,0.805069,0.875964,-0.000001,0.723136,0.725452,-0.063377,0.826927,0.734414,-0.016633,0,1,0
527,'2026/05/14 12:04:00:193',2,0.805635,0.878375,-0.000001,0.72311,0.724122,-0.061906,0.826433,0.733965,-0.017748,0,1,0
528,'2026/05/14 12:04:00:226',2,0.806611,0.877083,-0.000001,0.724988,0.727103,-0.060349,0.827128,0.734726,-0.013522,0,1,0
529,'2026/05/14 12:04:00:258',2,0.806506,0.878024,-0.000001,0.725157,0.725215,-0.062206,0.827372,0.734087,-0.01393,0,1,0
530,'2026/05/14 12:04:00:289',2,0.805511,0.877975,-0.000001,0.725434,0.723995,-0.062269,0.827344,0.734604,-0.019085,0,1,0
531,'2026/05/14 12:04:00:326',2,0.805495,0.879317,-0.000001,0.724544,0.724756,-0.061348,0.827612,0.733836,-0.016772,0,1,0
532,'2026/05/14 12:04:00:354',2,0.807518,0.879291,-0.000001,0.726462,0.72447,-0.063531,0.82728,0.734193,-0.017602,0,1,0
533,'2026/05/14 12:04:00:382',2,0.806009,0.877944,-0.000001,0.725429,0.725094,-0.059897,0.827648,0.734685,-0.016731,0,1,0
534,'2026/05/14 12:04:00:418',2,0.806576,0.878679,-0.000001,0.724705,0.724689,-0.059613,0.827384,0.734495,-0.015534,0,1,0
535,'2026/05/14 12:04:00:447',2,0.806349,0.877775,-0.000001,0.724432,0.726273,-0.058327,0.826886,0.736013,-0.016255,0,1,0
536,'2026/05/14 12:04:00:479',2,0.807186,0.879788,-0.000001,0.72653,0.724744,-0.061388,0.827094,0.735833,-0.016708,0,1,0
537,'2026/05/14 12:04:00:519',2,0.807666,0.878418,-0.000001,0.725378,0.724667,-0.062547,0.827566,0.73476,-0.018073,0,1,0
538,'2026/05/14 12:04:00:561',2,0.806496,0.878922,-0.000001,0.727294,0.726489,-0.061706,0.827022,0.73561,-0.014958,0,1,0
539,'2026/05/14 12:04:00:598',2,0.807207,0.879065,-0.000001,0.727657,0.724397,-0.063011,0.827796,0.73612,-0.016756,0,1,0
540,'2026/05/14 12:04:00:638',2,0.808409,0.878988,-0.000001,0.728588,0.72347,-0.062573,0.827129,0.73386,-0.01702,0,1,0
541,'2026/05/14 12:04:00:666',2,0.807282,0.879125,-0.000001,0.728702,0.725325,-0.063542,0.826888,0.736482,-0.017929,0,1,0
542,'2026/05/14 12:04:00:706',2,0.807078,0.878494,-0.000001,0.726512,0.728547,-0.061702,0.828672,0.736256,-0.01497,0,1,0
543,'2026/05/14 12:04:00:731',2,0.807897,0.879345,-0.000001,0.728446,0.728067,-0.061226,0.827364,0.73841,-0.017553,0,1,0
544,'2026/05/14 12:04:00:760',2,0.806781,0.876956,-0.000001,0.728562,0.728439,-0.061813,0.82887,0.735925,-0.017256,0,1,0
545,'2026/05/14 12:04:00:815',2,0.807982,0.878867,-0.000001,0.727567,0.727347,-0.05984,0.827962,0.738014,-0.017193,0,1,0
546,'2026/05/14 12:04:00:845',2,0.807962,0.876915,-0.000001,0.728219,0.725708,-0.060194,0.827517,0.737172,-0.015336,0,1,0
547,'2026/05/14 12:04:00:880',2,0.808413,0.878003,-0.000001,0.72915,0.72827,-0.060081,0.829728,0.737252,-0.015566,0,1,0
548,'2026/05/14 12:04:16:153',3,0.685994,0.889953,-0.000001,0.662574,0.443446,-0.042227,0.711405,0.794701,-0.052139,0,0,1
549,'2026/05/14 12:04:16:183',3,0.68589,0.887036,-0.000001,0.664956,0.444512,-0.045728,0.712463,0.79587,-0.053645,0,0,1
550,'2026/05/14 12:04:16:216',3,0.686029,0.889377,-0.000001,0.664162,0.444051,-0.042229,0.712551,0.79653,-0.051024,0,0,1
551,'2026/05/14 12:04:16:245',3,0.68451,0.889155,-0.000001,0.665194,0.443605,-0.044001,0.712448,0.794496,-0.051832,0,0,1
552,'2026/05/14 12:04:16:282',3,0.68504,0.88839,-0.000001,0.665074,0.442361,-0.044916,0.712966,0.796624,-0.051237,0,0,1
553,'2026/05/14 12:04:16:315',3,0.684902,0.887818,-0.000001,0.665248,0.442355,-0.044518,0.712709,0.796857,-0.052229,0,0,1
554,'2026/05/14 12:04:16:339',3,0.684187,0.889002,-0.000001,0.665015,0.442533,-0.043675,0.713024,0.797112,-0.051198,0,0,1
555,'2026/05/14 12:04:16:371',3,0.683659,0.892155,-0.000001,0.665689,0.44183,-0.042889,0.709063,0.796067,-0.052095,0,0,1
556,'2026/05/14 12:04:16:402',3,0.682623,0.891386,-0.000001,0.666992,0.442438,-0.042872,0.707124,0.796115,-0.051157,0,0,1
557,'2026/05/14 12:04:16:436',3,0.683359,0.889148,-0.000001,0.667715,0.442484,-0.043871,0.709685,0.794743,-0.050951,0,0,1
558,'2026/05/14 12:04:16:468',3,0.683033,0.891552,-0.000001,0.667339,0.439803,-0.045409,0.709224,0.795468,-0.050912,0,0,1
559,'2026/05/14 12:04:16:500',3,0.681758,0.89171,-0.000001,0.667567,0.441187,-0.039728,0.71171,0.794441,-0.04962,0,0,1
560,'2026/05/14 12:04:16:533',3,0.681034,0.891663,-0.000001,0.66787,0.440807,-0.039878,0.708206,0.795483,-0.048779,0,0,1
561,'2026/05/14 12:04:16:564',3,0.681993,0.88982,-0.000001,0.667065,0.440864,-0.045226,0.710674,0.795845,-0.0526,0,0,1
562,'2026/05/14 12:04:16:596',3,0.680605,0.891187,-0.000001,0.669541,0.439382,-0.043042,0.709273,0.795002,-0.049919,0,0,1
563,'2026/05/14 12:04:16:635',3,0.680402,0.891747,-0.000001,0.67235,0.438929,-0.041964,0.70694,0.79576,-0.050276,0,0,1
564,'2026/05/14 12:04:16:666',3,0.680292,0.891499,-0.000001,0.674834,0.439258,-0.045706,0.704379,0.795169,-0.051231,0,0,1
565,'2026/05/14 12:04:16:704',3,0.680768,0.889144,-0.000001,0.677265,0.43831,-0.045434,0.702438,0.792838,-0.050507,0,0,1
566,'2026/05/14 12:04:16:729',3,0.680643,0.893771,-0.000001,0.680401,0.439827,-0.035724,0.70384,0.794925,-0.048654,0,0,1
567,'2026/05/14 12:04:16:762',3,0.681081,0.891018,-0.000001,0.679666,0.437205,-0.043245,0.704944,0.794669,-0.050772,0,0,1
568,'2026/05/14 12:04:16:792',3,0.680308,0.888046,-0.000001,0.678807,0.438264,-0.044692,0.706784,0.794613,-0.051389,0,0,1
569,'2026/05/14 12:04:16:849',3,0.68012,0.89171,-0.000001,0.678405,0.438066,-0.041161,0.705368,0.793961,-0.049052,0,0,1
570,'2026/05/14 12:04:16:894',3,0.680935,0.891495,-0.000001,0.678149,0.439373,-0.042746,0.706901,0.79356,-0.050219,0,0,1
571,'2026/05/14 12:04:16:921',3,0.68087,0.890805,-0.000001,0.678288,0.438597,-0.041624,0.705159,0.795155,-0.050211,0,0,1
572,'2026/05/14 12:04:16:951',3,0.680028,0.892397,-0.000001,0.68049,0.439844,-0.038758,0.704806,0.79442,-0.048916,0,0,1
573,'2026/05/14 12:04:16:998',3,0.679158,0.892805,-0.000001,0.682437,0.440156,-0.038561,0.704845,0.794194,-0.047224,0,0,1
574,'2026/05/14 12:04:17:044',3,0.679537,0.89323,-0.000001,0.682572,0.439732,-0.039276,0.706384,0.793637,-0.047501,0,0,1
575,'2026/05/14 12:04:17:084',3,0.67975,0.891031,-0.000001,0.681102,0.439091,-0.041059,0.708815,0.793727,-0.048049,0,0,1
576,'2026/05/14 12:04:17:115',3,0.67835,0.889926,-0.000001,0.679844,0.439265,-0.041723,0.708048,0.794126,-0.049787,0,0,1
577,'2026/05/14 12:04:17:140',3,0.679078,0.892095,-0.000001,0.67967,0.436874,-0.04524,0.701576,0.795349,-0.051784,0,0,1
578,'2026/05/14 12:04:17:172',3,0.679366,0.889368,-0.000001,0.678944,0.438719,-0.045558,0.703207,0.795241,-0.05163,0,0,1
579,'2026/05/14 12:04:17:203',3,0.679578,0.88616,-0.000001,0.678304,0.438964,-0.044051,0.706841,0.794428,-0.050576,0,0,1
580,'2026/05/14 12:04:17:233',3,0.679965,0.889527,-0.000001,0.677012,0.439028,-0.042442,0.709496,0.793765,-0.051203,0,0,1
581,'2026/05/14 12:04:17:265',3,0.679287,0.8904,-0.000001,0.67645,0.441618,-0.039957,0.709032,0.793095,-0.049717,0,0,1
582,'2026/05/14 12:04:17:299',3,0.679082,0.890756,-0.000001,0.674834,0.442443,-0.038887,0.705337,0.793741,-0.05086,0,0,1
583,'2026/05/14 12:04:17:331',3,0.678792,0.890959,-0.000001,0.673752,0.442651,-0.038102,0.705111,0.7908,-0.047036,0,0,1
584,'2026/05/14 12:04:17:387',3,0.680226,0.890949,-0.000001,0.673644,0.443512,-0.039267,0.706171,0.790549,-0.048533,0,0,1
585,'2026/05/14 12:04:17:424',3,0.681347,0.891165,-0.000001,0.671495,0.444414,-0.042677,0.708612,0.789551,-0.049871,0,0,1
586,'2026/05/14 12:04:17:457',3,0.679929,0.890604,-0.000001,0.670281,0.443121,-0.038451,0.705558,0.790474,-0.047341,0,0,1
587,'2026/05/14 12:04:17:487',3,0.680732,0.889323,-0.000001,0.669595,0.442578,-0.041401,0.705552,0.791426,-0.048912,0,0,1
588,'2026/05/14 12:04:17:520',3,0.685114,0.88993,-0.000001,0.670517,0.440907,-0.044456,0.708297,0.792834,-0.050889,0,0,1
589,'2026/05/14 12:04:17:551',3,0.682672,0.890563,-0.000001,0.670891,0.440526,-0.043747,0.706579,0.792944,-0.051345,0,0,1
590,'2026/05/14 12:04:17:584',3,0.683445,0.890727,-0.000001,0.672048,0.440991,-0.046573,0.706229,0.793132,-0.052043,0,0,1
591,'2026/05/14 12:04:17:613',3,0.683512,0.889093,-0.000001,0.671923,0.440442,-0.042979,0.708908,0.794175,-0.051351,0,0,1
592,'2026/05/14 12:04:17:645',3,0.683894,0.889223,-0.000001,0.672571,0.441173,-0.044487,0.708514,0.792102,-0.051052,0,0,1
593,'2026/05/14 12:04:17:679',3,0.685222,0.88902,-0.000001,0.673271,0.441701,-0.042329,0.708865,0.792835,-0.050367,0,0,1
594,'2026/05/14 12:04:17:707',3,0.686401,0.884373,-0.000001,0.674138,0.4391,-0.045006,0.712263,0.792783,-0.051662,0,0,1
595,'2026/05/14 12:04:17:738',3,0.691333,0.880624,-0.000001,0.676746,0.44097,-0.045607,0.716404,0.792276,-0.052509,0,0,1
596,'2026/05/14 12:04:17:770',3,0.690312,0.878489,-0.000001,0.677765,0.44339,-0.044905,0.716217,0.792134,-0.050754,0,0,1
597,'2026/05/14 12:04:17:803',3,0.690018,0.881969,-0.000001,0.679288,0.438035,-0.046181,0.717985,0.793554,-0.053474,0,0,1
598,'2026/05/14 12:04:17:833',3,0.689971,0.883016,-0.000001,0.68002,0.437111,-0.045731,0.718818,0.790661,-0.052139,0,0,1
599,'2026/05/14 12:04:17:864',3,0.689317,0.8831,-0.000001,0.680585,0.437563,-0.047695,0.719518,0.790566,-0.052511,0,0,1
600,'2026/05/14 12:04:17:897',3,0.690201,0.883067,-0.000001,0.680966,0.435623,-0.045292,0.717455,0.792347,-0.053094,0,0,1
601,'2026/05/14 12:04:17:931',3,0.688142,0.879949,-0.000001,0.680285,0.438244,-0.049837,0.716911,0.79321,-0.055379,0,0,1
602,'2026/05/14 12:04:17:961',3,0.688565,0.88205,-0.000001,0.679909,0.438839,-0.049576,0.716194,0.792028,-0.054332,0,0,1
603,'2026/05/14 12:04:17:992',3,0.686554,0.88459,-0.000001,0.678568,0.438513,-0.045847,0.716904,0.792072,-0.052813,0,0,1
604,'2026/05/14 12:04:18:024',3,0.684654,0.88593,-0.000001,0.675765,0.435516,-0.046264,0.712877,0.792931,-0.051626,0,0,1
605,'2026/05/14 12:04:18:059',3,0.68341,0.885761,-0.000001,0.674591,0.438495,-0.04482,0.712588,0.791569,-0.050133,0,0,1
606,'2026/05/14 12:04:18:102',3,0.68568,0.882263,-0.000001,0.674422,0.439419,-0.052644,0.712621,0.79075,-0.056874,0,0,1
607,'2026/05/14 12:04:18:133',3,0.684367,0.884072,-0.000001,0.672158,0.438917,-0.05068,0.712673,0.792506,-0.055061,0,0,1
608,'2026/05/14 12:04:18:164',3,0.685605,0.88262,-0.000001,0.66963,0.440117,-0.051303,0.712764,0.790772,-0.055886,0,0,1
609,'2026/05/14 12:04:18:195',3,0.682971,0.882117,-0.000001,0.668428,0.439621,-0.049637,0.712748,0.792446,-0.054621,0,0,1
610,'2026/05/14 12:04:18:252',3,0.682122,0.882108,-0.000001,0.667801,0.439073,-0.050146,0.711562,0.792,-0.054804,0,0,1
611,'2026/05/14 12:04:18:289',3,0.683356,0.884895,-0.000001,0.667902,0.439665,-0.046598,0.710703,0.795131,-0.054501,0,0,1
612,'2026/05/14 12:04:18:327',3,0.681712,0.884774,-0.000001,0.668272,0.438629,-0.047183,0.709221,0.795103,-0.052948,0,0,1
613,'2026/05/14 12:04:18:352',3,0.680962,0.885498,-0.000001,0.669129,0.437146,-0.043729,0.708974,0.793005,-0.051558,0,0,1
614,'2026/05/14 12:04:18:382',3,0.681926,0.881811,-0.000001,0.667941,0.439618,-0.050319,0.711458,0.792256,-0.054124,0,0,1
615,'2026/05/14 12:04:18:418',3,0.682747,0.88559,-0.000001,0.667667,0.439736,-0.048085,0.707683,0.792473,-0.051909,0,0,1
616,'2026/05/14 12:04:18:450',3,0.682957,0.884825,-0.000001,0.667352,0.438682,-0.046719,0.710428,0.792302,-0.051824,0,0,1
617,'2026/05/14 12:04:18:478',3,0.682043,0.882283,-0.000001,0.666972,0.439368,-0.052471,0.709675,0.792488,-0.055204,0,0,1
618,'2026/05/14 12:04:18:511',3,0.682258,0.884443,-0.000001,0.667613,0.438543,-0.048619,0.711348,0.791551,-0.053381,0,0,1
619,'2026/05/14 12:04:18:543',3,0.681557,0.884671,-0.000001,0.666666,0.438007,-0.04918,0.708416,0.791858,-0.053275,0,0,1
620,'2026/05/14 12:04:18:574',3,0.682255,0.88269,-0.000001,0.666142,0.439172,-0.051187,0.708474,0.791855,-0.054726,0,0,1
621,'2026/05/14 12:04:18:614',3,0.679777,0.883344,-0.000001,0.665231,0.43932,-0.051676,0.706659,0.792487,-0.053738,0,0,1
622,'2026/05/14 12:04:18:637',3,0.679326,0.883476,-0.000001,0.664175,0.442011,-0.048641,0.706385,0.793294,-0.052285,0,0,1
623,'2026/05/14 12:04:18:691',3,0.67862,0.883076,-0.000001,0.663854,0.442646,-0.047614,0.704127,0.794126,-0.051091,0,0,1
624,'2026/05/14 12:04:18:719',3,0.678603,0.882288,-0.000001,0.662662,0.438373,-0.046618,0.702155,0.794658,-0.051025,0,0,1
625,'2026/05/14 12:04:18:746',3,0.675839,0.882121,-0.000001,0.661837,0.439512,-0.04425,0.700529,0.794138,-0.049849,0,0,1
626,'2026/05/14 12:04:18:778',3,0.675429,0.887288,-0.000001,0.660877,0.438491,-0.047403,0.695751,0.795336,-0.05134,0,0,1
627,'2026/05/14 12:04:18:807',3,0.676798,0.889558,-0.000001,0.660297,0.440824,-0.050852,0.699893,0.79462,-0.052016,0,0,1
628,'2026/05/14 12:04:18:839',3,0.676677,0.888016,-0.000001,0.659974,0.437837,-0.04524,0.697356,0.795352,-0.051718,0,0,1
629,'2026/05/14 12:04:18:878',3,0.67785,0.888463,-0.000001,0.66192,0.434498,-0.049391,0.70335,0.796589,-0.053486,0,0,1
630,'2026/05/14 12:04:18:902',3,0.679938,0.888779,-0.000001,0.664805,0.434881,-0.047014,0.705892,0.795751,-0.052504,0,0,1
631,'2026/05/14 12:04:18:934',3,0.682906,0.888642,-0.000001,0.668413,0.433599,-0.048294,0.706494,0.795897,-0.054364,0,0,1
632,'2026/05/14 12:04:18:965',3,0.68443,0.889344,-0.000001,0.670113,0.4315,-0.047959,0.709263,0.794594,-0.052237,0,0,1
633,'2026/05/14 12:04:18:997',3,0.683809,0.89058,-0.000001,0.671449,0.430571,-0.044689,0.709157,0.794909,-0.051934,0,0,1
634,'2026/05/14 12:04:19:027',3,0.686199,0.892225,-0.000001,0.671956,0.430857,-0.046822,0.710167,0.795531,-0.052744,0,0,1
635,'2026/05/14 12:04:19:074',3,0.686169,0.890753,-0.000001,0.671022,0.431045,-0.047663,0.710547,0.795126,-0.052231,0,0,1
636,'2026/05/14 12:04:19:107',3,0.68427,0.88939,-0.000001,0.671424,0.431103,-0.046476,0.708324,0.794578,-0.054071,0,0,1
637,'2026/05/14 12:04:19:141',3,0.682221,0.889164,-0.000001,0.670658,0.430052,-0.046724,0.709489,0.793985,-0.053678,0,0,1
638,'2026/05/14 12:04:19:191',3,0.684927,0.890707,-0.000001,0.671547,0.431705,-0.045639,0.709656,0.794814,-0.052847,0,0,1
639,'2026/05/14 12:04:19:224',3,0.684522,0.890801,-0.000001,0.670677,0.43235,-0.043238,0.708242,0.794433,-0.052831,0,0,1
640,'2026/05/14 12:04:19:251',3,0.684722,0.890012,-0.000001,0.671604,0.433097,-0.044171,0.710901,0.795017,-0.0525,0,0,1
641,'2026/05/14 12:04:19:295',3,0.686181,0.890602,-0.000001,0.672126,0.432289,-0.043229,0.714324,0.794018,-0.0529,0,0,1
642,'2026/05/14 12:04:19:330',3,0.686297,0.890535,-0.000001,0.672385,0.432219,-0.04219,0.715392,0.793409,-0.052361,0,0,1
643,'2026/05/14 12:04:19:366',3,0.68536,0.889922,-0.000001,0.671294,0.43404,-0.039974,0.713045,0.792524,-0.049758,0,0,1
644,'2026/05/14 12:04:19:394',3,0.685867,0.889435,-0.000001,0.671097,0.433332,-0.043957,0.714245,0.792846,-0.052246,0,0,1
645,'2026/05/14 12:04:19:425',3,0.685828,0.891534,-0.000001,0.67025,0.436916,-0.038744,0.711441,0.79245,-0.049698,0,0,1
646,'2026/05/14 12:04:19:457',3,0.685317,0.890399,-0.000001,0.669472,0.438187,-0.040951,0.710844,0.793034,-0.050831,0,0,1
647,'2026/05/14 12:04:19:488',3,0.683678,0.890308,-0.000001,0.668953,0.436655,-0.04381,0.712959,0.792473,-0.049711,0,0,1
648,'2026/05/14 12:04:19:519',3,0.686811,0.889292,-0.000001,0.668144,0.438761,-0.040638,0.713645,0.79252,-0.050852,0,0,1
649,'2026/05/14 12:04:19:573',3,0.688108,0.888889,-0.000001,0.667797,0.439544,-0.048746,0.710738,0.791585,-0.052609,0,0,1
650,'2026/05/14 12:04:19:609',3,0.688311,0.886804,-0.000001,0.667507,0.438939,-0.0435,0.716362,0.792055,-0.050461,0,0,1
651,'2026/05/14 12:04:19:649',3,0.691474,0.886665,-0.000001,0.667817,0.43938,-0.039388,0.719076,0.792441,-0.050262,0,0,1
652,'2026/05/14 12:04:19:676',3,0.692635,0.886132,-0.000001,0.669062,0.439029,-0.042855,0.72032,0.792487,-0.051525,0,0,1
653,'2026/05/14 12:04:19:707',3,0.69524,0.886469,-0.000001,0.6718,0.439552,-0.046262,0.71942,0.790125,-0.051049,0,0,1
654,'2026/05/14 12:04:19:740',3,0.69616,0.886316,-0.000001,0.674389,0.440215,-0.047846,0.722713,0.790243,-0.051312,0,0,1
655,'2026/05/14 12:04:19:770',3,0.69675,0.884705,-0.000001,0.675198,0.441622,-0.045726,0.722905,0.789095,-0.050522,0,0,1
656,'2026/05/14 12:04:19:803',3,0.698035,0.883214,-0.000001,0.676157,0.440931,-0.047986,0.723317,0.790154,-0.052128,0,0,1
657,'2026/05/14 12:04:19:833',3,0.697244,0.883917,-0.000001,0.677032,0.43967,-0.049418,0.723504,0.789637,-0.051888,0,0,1
658,'2026/05/14 12:04:19:865',3,0.697009,0.88455,-0.000001,0.676596,0.439018,-0.048963,0.722939,0.791168,-0.052046,0,0,1
659,'2026/05/14 12:04:19:897',3,0.697719,0.885348,-0.000001,0.675353,0.438832,-0.05051,0.72466,0.790998,-0.053018,0,0,1
660,'2026/05/14 12:04:19:942',3,0.695875,0.884522,-0.000001,0.675039,0.439225,-0.050124,0.723961,0.791369,-0.053411,0,0,1
661,'2026/05/14 12:04:19:979',3,0.696427,0.887325,-0.000001,0.673607,0.438458,-0.044983,0.720896,0.790965,-0.050852,0,0,1
662,'2026/05/14 12:04:20:014',3,0.695176,0.883317,-0.000001,0.673295,0.440221,-0.048997,0.721977,0.791414,-0.052557,0,0,1
663,'2026/05/14 12:04:20:041',3,0.694747,0.885211,-0.000001,0.673007,0.439075,-0.04942,0.720341,0.791447,-0.052555,0,0,1
664,'2026/05/14 12:04:20:070',3,0.695871,0.887658,-0.000001,0.672632,0.438831,-0.047539,0.722711,0.791334,-0.052937,0,0,1
665,'2026/05/14 12:04:20:108',3,0.695291,0.888963,-0.000001,0.673258,0.436727,-0.044935,0.721842,0.79111,-0.050956,0,0,1
666,'2026/05/14 12:04:20:135',3,0.695841,0.887313,-0.000001,0.672421,0.437831,-0.047528,0.723369,0.791588,-0.052598,0,0,1
667,'2026/05/14 12:04:20:166',3,0.696178,0.886186,-0.000001,0.674268,0.438062,-0.049618,0.72301,0.790352,-0.052255,0,0,1
668,'2026/05/14 12:04:20:206',3,0.696548,0.884202,-0.000001,0.674251,0.439751,-0.047826,0.723799,0.79014,-0.051342,0,0,1
669,'2026/05/14 12:04:20:228',3,0.697671,0.883948,-0.000001,0.67598,0.436939,-0.050231,0.724804,0.791557,-0.054098,0,0,1
670,'2026/05/14 12:04:20:261',3,0.698565,0.886123,-0.000001,0.677245,0.436818,-0.049882,0.724651,0.79077,-0.052725,0,0,1
671,'2026/05/14 12:04:20:292',3,0.69884,0.888186,-0.000001,0.676128,0.43605,-0.045335,0.723516,0.79025,-0.052248,0,0,1
672,'2026/05/14 12:04:20:320',3,0.698459,0.886427,-0.000001,0.678233,0.436464,-0.047613,0.724093,0.789084,-0.051893,0,0,1
673,'2026/05/14 12:04:20:353',3,0.698601,0.886332,-0.000001,0.678734,0.436487,-0.04237,0.727261,0.791336,-0.052105,0,0,1
674,'2026/05/14 12:04:20:385',3,0.699989,0.885561,-0.000001,0.678958,0.436057,-0.047596,0.726586,0.789997,-0.052671,0,0,1
675,'2026/05/14 12:04:20:445',3,0.699933,0.885768,-0.000001,0.680908,0.437019,-0.044615,0.728129,0.791034,-0.051651,0,0,1
676,'2026/05/14 12:04:20:489',3,0.701186,0.885307,-0.000001,0.680247,0.43586,-0.046601,0.728551,0.791257,-0.052868,0,0,1
677,'2026/05/14 12:04:20:513',3,0.701333,0.886303,-0.000001,0.681804,0.435582,-0.045028,0.729208,0.790404,-0.052275,0,0,1
678,'2026/05/14 12:04:20:545',3,0.702986,0.886572,-0.000001,0.683056,0.435574,-0.047829,0.727705,0.789618,-0.052519,0,0,1
679,'2026/05/14 12:04:20:579',3,0.701665,0.886231,-0.000001,0.683511,0.435146,-0.045808,0.729149,0.789493,-0.052216,0,0,1
680,'2026/05/14 12:04:20:618',3,0.702683,0.885565,-0.000001,0.683377,0.436216,-0.045861,0.730892,0.790296,-0.051939,0,0,1
681,'2026/05/14 12:04:20:659',3,0.701556,0.883366,-0.000001,0.685155,0.435711,-0.050216,0.730077,0.788734,-0.052809,0,0,1
682,'2026/05/14 12:04:20:705',3,0.704049,0.884392,-0.000001,0.686824,0.435904,-0.047065,0.731475,0.790698,-0.052577,0,0,1
683,'2026/05/14 12:04:20:737',3,0.709501,0.885989,-0.000001,0.690901,0.433566,-0.046688,0.738217,0.790645,-0.054012,0,0,1
684,'2026/05/14 12:04:20:789',3,0.712297,0.886469,-0.000001,0.694712,0.42744,-0.042318,0.740813,0.78927,-0.050531,0,0,1
685,'2026/05/14 12:04:20:819',3,0.71161,0.886586,-0.000001,0.695248,0.426602,-0.044672,0.740002,0.791051,-0.052737,0,0,1
686,'2026/05/14 12:04:20:846',3,0.715078,0.887552,-0.000001,0.698133,0.425617,-0.04678,0.74196,0.789268,-0.052057,0,0,1
687,'2026/05/14 12:04:20:878',3,0.718921,0.890147,-0.000001,0.700307,0.421536,-0.04553,0.746386,0.788498,-0.053094,0,0,1
688,'2026/05/14 12:04:20:909',3,0.719389,0.888994,-0.000001,0.703464,0.41976,-0.050793,0.745675,0.78879,-0.055046,0,0,1
689,'2026/05/14 12:04:20:941',3,0.718893,0.887549,-0.000001,0.7066,0.412876,-0.047553,0.749067,0.787319,-0.054487,0,0,1
690,'2026/05/14 12:04:20:972',3,0.720896,0.886502,-0.000001,0.708134,0.411397,-0.050073,0.751069,0.789402,-0.056543,0,0,1
691,'2026/05/14 12:04:21:002',3,0.723095,0.889399,-0.000001,0.708264,0.411887,-0.053735,0.750943,0.788108,-0.058722,0,0,1
692,'2026/05/14 12:04:21:050',3,0.72133,0.887334,-0.000001,0.708429,0.411234,-0.05099,0.748957,0.788598,-0.055712,0,0,1
693,'2026/05/14 12:04:21:102',3,0.71842,0.886679,-0.000001,0.707016,0.409645,-0.051804,0.751628,0.788947,-0.056017,0,0,1
694,'2026/05/14 12:04:21:142',3,0.718018,0.88734,-0.000001,0.706752,0.407126,-0.048118,0.749701,0.78986,-0.053988,0,0,1
695,'2026/05/14 12:04:21:182',3,0.718571,0.887571,-0.000001,0.703622,0.415031,-0.050113,0.74562,0.789914,-0.055526,0,0,1
696,'2026/05/14 12:04:21:215',3,0.716299,0.887657,-0.000001,0.702445,0.409516,-0.047769,0.743624,0.789904,-0.054347,0,0,1
697,'2026/05/14 12:04:21:247',3,0.713797,0.886473,-0.000001,0.699728,0.412835,-0.050445,0.745902,0.790596,-0.05615,0,0,1
698,'2026/05/14 12:04:21:276',3,0.715255,0.887918,-0.000001,0.699429,0.414731,-0.044803,0.742337,0.790004,-0.052424,0,0,1
699,'2026/05/14 12:04:21:311',3,0.7136,0.886197,-0.000001,0.698073,0.417059,-0.048821,0.742744,0.790423,-0.054527,0,0,1
700,'2026/05/14 12:04:21:351',3,0.71273,0.886002,-0.000001,0.697194,0.419019,-0.048892,0.741253,0.789979,-0.054593,0,0,1
701,'2026/05/14 12:04:21:383',3,0.711412,0.885076,-0.000001,0.697258,0.421553,-0.047702,0.741479,0.791548,-0.053252,0,0,1
702,'2026/05/14 12:04:21:413',3,0.712175,0.88644,-0.000001,0.697663,0.419028,-0.048648,0.742719,0.791139,-0.053964,0,0,1
703,'2026/05/14 12:04:21:444',3,0.713507,0.885988,-0.000001,0.697404,0.418483,-0.046496,0.743111,0.790731,-0.053465,0,0,1
704,'2026/05/14 12:04:21:480',3,0.7156,0.886739,-0.000001,0.698316,0.418253,-0.049997,0.744087,0.789159,-0.054257,0,0,1
705,'2026/05/14 12:04:21:512',3,0.715395,0.887483,-0.000001,0.699957,0.415899,-0.046019,0.742743,0.788971,-0.052891,0,0,1
706,'2026/05/14 12:04:21:536',3,0.71612,0.888091,-0.000001,0.700942,0.417107,-0.046501,0.744245,0.789234,-0.052977,0,0,1
707,'2026/05/14 12:04:21:567',3,0.715159,0.887553,-0.000001,0.698845,0.418342,-0.048768,0.742513,0.791151,-0.054787,0,0,1
708,'2026/05/14 12:04:21:598',3,0.714735,0.887009,-0.000001,0.699471,0.418304,-0.048197,0.742056,0.790636,-0.054523,0,0,1
709,'2026/05/14 12:04:21:630',3,0.71477,0.886798,-0.000001,0.699833,0.420585,-0.046824,0.741712,0.788529,-0.053546,0,0,1
710,'2026/05/14 12:04:21:666',3,0.713865,0.885492,-0.000001,0.701003,0.419988,-0.04576,0.743732,0.790381,-0.053841,0,0,1
711,'2026/05/14 12:04:21:698',3,0.715344,0.886403,-0.000001,0.700792,0.420661,-0.045894,0.742459,0.789672,-0.054043,0,0,1
712,'2026/05/14 12:04:21:737',3,0.716448,0.890018,-0.000001,0.699286,0.42027,-0.045957,0.740706,0.790299,-0.054356,0,0,1
713,'2026/05/14 12:04:21:778',3,0.715973,0.888645,-0.000001,0.700836,0.418339,-0.045247,0.744238,0.789096,-0.05208,0,0,1
714,'2026/05/14 12:04:21:814',3,0.716226,0.889301,-0.000001,0.699646,0.419752,-0.046623,0.742445,0.78881,-0.054559,0,0,1
715,'2026/05/14 12:04:21:854',3,0.716411,0.888604,-0.000001,0.698272,0.418434,-0.044951,0.744066,0.789547,-0.051597,0,0,1
716,'2026/05/14 12:04:21:887',3,0.716356,0.887275,-0.000001,0.695919,0.419191,-0.04786,0.743693,0.789943,-0.052723,0,0,1
717,'2026/05/14 12:04:21:925',3,0.715329,0.88736,-0.000001,0.69631,0.420008,-0.048323,0.74145,0.78919,-0.053101,0,0,1
718,'2026/05/14 12:04:21:964',3,0.715503,0.886604,-0.000001,0.698034,0.419566,-0.046218,0.743488,0.789457,-0.052358,0,0,1
719,'2026/05/14 12:04:22:001',3,0.715382,0.887117,-0.000001,0.698304,0.417779,-0.046699,0.744269,0.788723,-0.053078,0,0,1
720,'2026/05/14 12:04:22:047',3,0.715438,0.886597,-0.000001,0.698724,0.41905,-0.048129,0.743168,0.789377,-0.053482,0,0,1
721,'2026/05/14 12:04:22:072',3,0.714162,0.886878,-0.000001,0.698181,0.420189,-0.047074,0.743076,0.78888,-0.053182,0,0,1
722,'2026/05/14 12:04:22:112',3,0.714783,0.887119,-0.000001,0.698022,0.420007,-0.048593,0.742996,0.789396,-0.053282,0,0,1
723,'2026/05/14 12:04:22:160',3,0.714141,0.887195,-0.000001,0.697659,0.420672,-0.047911,0.74181,0.789747,-0.053115,0,0,1
724,'2026/05/14 12:04:22:202',3,0.712612,0.886637,-0.000001,0.697965,0.425954,-0.046956,0.738834,0.78895,-0.053207,0,0,1
725,'2026/05/14 12:04:22:233',3,0.71426,0.887143,-0.000001,0.69809,0.426311,-0.048195,0.740118,0.790218,-0.054062,0,0,1
726,'2026/05/14 12:04:22:265',3,0.71199,0.88479,-0.000001,0.69763,0.42587,-0.049818,0.740994,0.788904,-0.052957,0,0,1
727,'2026/05/14 12:04:22:304',3,0.713793,0.887594,-0.000001,0.697769,0.426082,-0.045508,0.737884,0.789315,-0.053172,0,0,1
728,'2026/05/14 12:04:22:351',3,0.712562,0.885483,-0.000001,0.696797,0.426047,-0.046586,0.739511,0.789187,-0.052776,0,0,1
729,'2026/05/14 12:04:22:392',3,0.71241,0.886269,-0.000001,0.695642,0.425003,-0.047483,0.740088,0.790259,-0.053716,0,0,1
730,'2026/05/14 12:04:22:419',3,0.712634,0.886154,-0.000001,0.696145,0.42428,-0.049282,0.739331,0.790354,-0.054383,0,0,1
731,'2026/05/14 12:04:22:451',3,0.712671,0.886974,-0.000001,0.694557,0.424699,-0.047054,0.739462,0.791374,-0.052678,0,0,1
732,'2026/05/14 12:04:22:490',3,0.712344,0.88718,-0.000001,0.694488,0.424962,-0.047088,0.739321,0.791677,-0.053489,0,0,1
733,'2026/05/14 12:04:22:519',3,0.712833,0.887555,-0.000001,0.69449,0.423475,-0.047016,0.740244,0.791613,-0.054552,0,0,1
734,'2026/05/14 12:04:22:546',3,0.713354,0.886815,-0.000001,0.694232,0.423862,-0.047957,0.740175,0.791451,-0.054082,0,0,1
735,'2026/05/14 12:04:22:576',3,0.712992,0.886802,-0.000001,0.694414,0.424829,-0.048637,0.740487,0.790989,-0.054595,0,0,1
736,'2026/05/14 12:04:22:607',3,0.714274,0.887849,-0.000001,0.694775,0.424283,-0.04872,0.738984,0.790941,-0.054845,0,0,1
737,'2026/05/14 12:04:22:640',3,0.712757,0.886618,-0.000001,0.694965,0.424273,-0.051033,0.73983,0.790343,-0.055584,0,0,1
738,'2026/05/14 12:04:22:671',3,0.71342,0.887018,-0.000001,0.694731,0.423906,-0.050492,0.740545,0.791234,-0.054982,0,0,1
739,'2026/05/14 12:04:22:704',3,0.713582,0.88698,-0.000001,0.694599,0.425015,-0.050149,0.740543,0.791499,-0.055498,0,0,1
740,'2026/05/14 12:04:22:735',3,0.712572,0.886342,-0.000001,0.695095,0.423968,-0.050113,0.740244,0.79127,-0.054985,0,0,1
741,'2026/05/14 12:04:22:768',3,0.712642,0.886761,-0.000001,0.693711,0.424041,-0.049602,0.740756,0.790938,-0.055013,0,0,1
742,'2026/05/14 12:04:22:818',3,0.713312,0.887168,-0.000001,0.693637,0.424211,-0.050847,0.740637,0.791214,-0.055682,0,0,1
743,'2026/05/14 12:04:22:848',3,0.714543,0.884938,-0.000001,0.694638,0.423972,-0.053594,0.741956,0.78971,-0.056232,0,0,1
744,'2026/05/14 12:04:22:878',3,0.714597,0.885891,-0.000001,0.694199,0.423172,-0.049048,0.742375,0.790192,-0.05403,0,0,1
745,'2026/05/14 12:04:22:909',3,0.714245,0.886701,-0.000001,0.695277,0.423481,-0.050656,0.74015,0.791018,-0.055054,0,0,1
746,'2026/05/14 12:04:22:940',3,0.713948,0.887619,-0.000001,0.693739,0.422866,-0.049365,0.740728,0.792169,-0.055773,0,0,1
747,'2026/05/14 12:04:22:971',3,0.713871,0.887174,-0.000001,0.694052,0.423185,-0.048135,0.741805,0.791339,-0.055085,0,0,1
748,'2026/05/14 12:04:23:004',3,0.713844,0.887467,-0.000001,0.694465,0.423183,-0.049316,0.739773,0.791962,-0.055285,0,0,1
749,'2026/05/14 12:04:23:034',3,0.714389,0.886101,-0.000001,0.69398,0.422554,-0.047798,0.741759,0.791596,-0.054375,0,0,1
750,'2026/05/14 12:04:23:078',3,0.713164,0.886397,-0.000001,0.693577,0.423573,-0.050546,0.74149,0.790554,-0.055087,0,0,1
751,'2026/05/14 12:04:23:116',3,0.713353,0.885932,-0.000001,0.694877,0.423342,-0.050601,0.740871,0.790024,-0.05459,0,0,1
752,'2026/05/14 12:04:23:145',3,0.715175,0.886012,-0.000001,0.695221,0.422997,-0.049602,0.743193,0.791157,-0.055056,0,0,1
753,'2026/05/14 12:04:23:175',3,0.715219,0.885748,-0.000001,0.696159,0.422925,-0.051741,0.742693,0.791217,-0.055921,0,0,1
754,'2026/05/14 12:04:23:208',3,0.717531,0.887859,-0.000001,0.695849,0.420753,-0.051105,0.743018,0.792066,-0.056345,0,0,1
755,'2026/05/14 12:04:23:239',3,0.716861,0.889237,-0.000001,0.69771,0.418565,-0.049955,0.743006,0.791284,-0.054753,0,0,1
756,'2026/05/14 12:04:23:269',3,0.716454,0.888614,-0.000001,0.697131,0.422662,-0.051067,0.741132,0.791662,-0.056034,0,0,1
757,'2026/05/14 12:04:23:301',3,0.716867,0.887227,-0.000001,0.696647,0.421513,-0.05075,0.743342,0.792337,-0.055711,0,0,1
758,'2026/05/14 12:04:23:339',3,0.716118,0.886916,-0.000001,0.696281,0.423228,-0.053364,0.742097,0.791515,-0.055638,0,0,1
759,'2026/05/14 12:04:23:364',3,0.715124,0.886437,-0.000001,0.696846,0.422452,-0.049408,0.744421,0.790833,-0.054253,0,0,1
760,'2026/05/14 12:04:23:396',3,0.715027,0.887061,-0.000001,0.696361,0.423951,-0.053997,0.742017,0.790218,-0.054927,0,0,1
761,'2026/05/14 12:04:23:428',3,0.71414,0.88642,-0.000001,0.696343,0.42222,-0.046683,0.742008,0.791391,-0.052706,0,0,1
762,'2026/05/14 12:04:23:466',3,0.713755,0.883982,-0.000001,0.696975,0.424298,-0.050889,0.743208,0.78932,-0.054167,0,0,1
763,'2026/05/14 12:04:23:492',3,0.714838,0.885029,-0.000001,0.697198,0.423923,-0.050245,0.743428,0.790006,-0.054439,0,0,1
764,'2026/05/14 12:04:23:524',3,0.715577,0.886263,-0.000001,0.696688,0.422993,-0.050251,0.743852,0.791844,-0.05399,0,0,1
765,'2026/05/14 12:04:23:555',3,0.714805,0.885035,-0.000001,0.696723,0.424453,-0.050484,0.743121,0.791093,-0.054025,0,0,1
766,'2026/05/14 12:04:23:588',3,0.714755,0.885787,-0.000001,0.696652,0.424496,-0.047683,0.743283,0.791417,-0.052537,0,0,1
767,'2026/05/14 12:04:23:635',3,0.712912,0.886168,-0.000001,0.695122,0.424418,-0.04744,0.741306,0.792311,-0.053907,0,0,1
768,'2026/05/14 12:04:23:683',3,0.712198,0.88475,-0.000001,0.69576,0.426068,-0.051647,0.739492,0.791984,-0.055295,0,0,1
769,'2026/05/14 12:04:23:711',3,0.71205,0.887093,-0.000001,0.694762,0.424992,-0.047681,0.740875,0.791744,-0.053682,0,0,1
770,'2026/05/14 12:04:23:743',3,0.712079,0.886072,-0.000001,0.694343,0.422362,-0.045936,0.739232,0.791184,-0.053322,0,0,1
771,'2026/05/14 12:04:23:793',3,0.712995,0.887172,-0.000001,0.695259,0.425735,-0.048004,0.738818,0.789475,-0.053598,0,0,1
772,'2026/05/14 12:04:23:838',3,0.713966,0.885529,-0.000001,0.696342,0.425494,-0.047355,0.740883,0.788938,-0.052846,0,0,1
773,'2026/05/14 12:04:23:871',3,0.713069,0.884396,-0.000001,0.697106,0.426404,-0.046305,0.742753,0.789196,-0.052653,0,0,1
774,'2026/05/14 12:04:23:900',3,0.712192,0.88432,-0.000001,0.696966,0.428409,-0.050292,0.741111,0.790607,-0.055118,0,0,1
775,'2026/05/14 12:04:23:933',3,0.71175,0.884721,-0.000001,0.69761,0.42525,-0.046939,0.74025,0.790142,-0.054276,0,0,1
776,'2026/05/14 12:04:23:982',3,0.712786,0.885091,-0.000001,0.697428,0.424234,-0.045091,0.740808,0.789101,-0.052102,0,0,1
777,'2026/05/14 12:04:24:039',3,0.712521,0.884776,-0.000001,0.696139,0.427036,-0.049929,0.740451,0.789838,-0.054328,0,0,1
778,'2026/05/14 12:04:24:074',3,0.713023,0.885607,-0.000001,0.696473,0.425911,-0.048308,0.740884,0.79002,-0.054153,0,0,1
779,'2026/05/14 12:04:24:105',3,0.712332,0.884518,-0.000001,0.695633,0.425235,-0.046421,0.739766,0.790293,-0.053172,0,0,1
780,'2026/05/14 12:04:24:138',3,0.713099,0.886815,-0.000001,0.696121,0.428159,-0.046141,0.738865,0.790262,-0.053603,0,0,1
781,'2026/05/14 12:04:24:168',3,0.711673,0.884251,-0.000001,0.695628,0.427935,-0.047024,0.74063,0.789362,-0.05251,0,0,1
782,'2026/05/14 12:04:24:201',3,0.712012,0.883912,-0.000001,0.696717,0.427546,-0.046215,0.7414,0.789171,-0.052951,0,0,1
783,'2026/05/14 12:04:24:230',3,0.713077,0.883708,-0.000001,0.697937,0.428035,-0.046946,0.740725,0.78911,-0.054045,0,0,1
784,'2026/05/14 12:04:24:262',3,0.713223,0.884492,-0.000001,0.699176,0.427183,-0.047935,0.741691,0.789296,-0.054074,0,0,1
785,'2026/05/14 12:04:24:294',3,0.71532,0.885781,-0.000001,0.70014,0.428377,-0.045187,0.740162,0.789913,-0.052539,0,0,1
786,'2026/05/14 12:04:24:323',3,0.712692,0.884458,-0.000001,0.701991,0.431909,-0.04403,0.740462,0.790348,-0.051241,0,0,1
787,'2026/05/14 12:04:24:355',3,0.714841,0.885402,-0.000001,0.7027,0.434127,-0.043705,0.741043,0.790321,-0.051763,0,0,1
788,'2026/05/14 12:04:24:391',3,0.715898,0.884009,-0.000001,0.70371,0.434798,-0.042128,0.743879,0.79033,-0.050675,0,0,1
789,'2026/05/14 12:04:24:428',3,0.716668,0.884445,-0.000001,0.704664,0.436602,-0.046908,0.745157,0.791234,-0.052573,0,0,1
790,'2026/05/14 12:04:24:465',3,0.717413,0.884378,-0.000001,0.709017,0.436597,-0.044399,0.743885,0.79156,-0.051344,0,0,1
791,'2026/05/14 12:04:24:498',3,0.717416,0.88483,-0.000001,0.70965,0.441991,-0.047458,0.74214,0.792297,-0.052256,0,0,1
792,'2026/05/14 12:04:24:533',3,0.716908,0.884644,-0.000001,0.710431,0.448256,-0.046998,0.740184,0.794285,-0.051921,0,0,1
793,'2026/05/14 12:04:24:560',3,0.715026,0.884373,-0.000001,0.711349,0.454476,-0.045292,0.743505,0.795869,-0.050068,0,0,1
794,'2026/05/14 12:04:24:590',3,0.713838,0.884131,-0.000001,0.710892,0.459277,-0.044637,0.742816,0.797498,-0.049752,0,0,1
795,'2026/05/14 12:04:24:620',3,0.715569,0.886617,-0.000001,0.711041,0.45972,-0.045052,0.743955,0.798424,-0.051019,0,0,1
796,'2026/05/14 12:04:24:652',3,0.715996,0.887573,-0.000001,0.711712,0.466034,-0.043222,0.74492,0.79952,-0.049513,0,0,1
797,'2026/05/14 12:04:24:685',3,0.715151,0.887042,-0.000001,0.711386,0.467061,-0.045077,0.744189,0.799328,-0.050101,0,0,1
798,'2026/05/14 12:04:24:716',3,0.715844,0.886197,-0.000001,0.71159,0.468137,-0.044052,0.744861,0.798721,-0.050902,0,0,1
799,'2026/05/14 12:04:24:746',3,0.715589,0.885738,-0.000001,0.711654,0.468659,-0.044728,0.744988,0.798408,-0.049956,0,0,1
800,'2026/05/14 12:04:24:777',3,0.715099,0.886094,-0.000001,0.711706,0.469453,-0.043461,0.743307,0.801685,-0.049395,0,0,1
801,'2026/05/14 12:04:24:816',3,0.713392,0.885982,-0.000001,0.710867,0.469333,-0.043662,0.742353,0.80121,-0.048744,0,0,1
802,'2026/05/14 12:04:24:840',3,0.71396,0.885997,-0.000001,0.709722,0.466468,-0.045811,0.743968,0.800465,-0.051123,0,0,1
803,'2026/05/14 12:04:24:872',3,0.713,0.885319,-0.000001,0.70874,0.465828,-0.045294,0.742623,0.800916,-0.049571,0,0,1
804,'2026/05/14 12:04:24:903',3,0.713786,0.885982,-0.000001,0.708435,0.462887,-0.044747,0.742175,0.800925,-0.052009,0,0,1
805,'2026/05/14 12:04:24:934',3,0.714304,0.886069,-0.000001,0.708499,0.461421,-0.045573,0.741327,0.801767,-0.052582,0,0,1
806,'2026/05/14 12:04:24:967',3,0.715834,0.887405,-0.000001,0.708593,0.461345,-0.046096,0.742636,0.800459,-0.052151,0,0,1
807,'2026/05/14 12:04:24:998',3,0.715147,0.884582,-0.000001,0.708511,0.461736,-0.049289,0.744162,0.800357,-0.052212,0,0,1
808,'2026/05/14 12:04:25:029',3,0.714263,0.887291,-0.000001,0.70992,0.461311,-0.047284,0.743309,0.800512,-0.050592,0,0,1
809,'2026/05/14 12:04:25:059',3,0.715729,0.88547,-0.000001,0.70953,0.460886,-0.050612,0.743641,0.80108,-0.05268,0,0,1
810,'2026/05/14 12:04:25:092',3,0.715912,0.886717,-0.000001,0.708736,0.459048,-0.048618,0.744664,0.80037,-0.052533,0,0,1
811,'2026/05/14 12:04:25:141',3,0.714802,0.886703,-0.000001,0.709272,0.460176,-0.048105,0.74423,0.80131,-0.051716,0,0,1
812,'2026/05/14 12:04:25:171',3,0.714765,0.886843,-0.000001,0.708686,0.457747,-0.04863,0.741694,0.801229,-0.052473,0,0,1
813,'2026/05/14 12:04:25:202',3,0.714671,0.887764,-0.000001,0.707267,0.457805,-0.048608,0.741775,0.801507,-0.052112,0,0,1
814,'2026/05/14 12:04:25:235',3,0.713879,0.888426,-0.000001,0.70696,0.456859,-0.047595,0.741491,0.80161,-0.051165,0,0,1
815,'2026/05/14 12:04:25:264',3,0.713492,0.889301,-0.000001,0.707029,0.456979,-0.046424,0.740876,0.800893,-0.050617,0,0,1
816,'2026/05/14 12:04:25:296',3,0.712919,0.888177,-0.000001,0.706572,0.457829,-0.048276,0.740222,0.802421,-0.051135,0,0,1
817,'2026/05/14 12:04:25:327',3,0.712621,0.888035,-0.000001,0.706805,0.457266,-0.04616,0.740327,0.801103,-0.049895,0,0,1
818,'2026/05/14 12:04:25:380',3,0.712949,0.88916,-0.000001,0.706182,0.455216,-0.048739,0.740541,0.802167,-0.052031,0,0,1
819,'2026/05/14 12:04:25:422',3,0.713436,0.889996,-0.000001,0.706162,0.454044,-0.046037,0.741114,0.800157,-0.051425,0,0,1
820,'2026/05/14 12:04:25:466',3,0.715032,0.889087,-0.000001,0.7062,0.454705,-0.050369,0.741846,0.801139,-0.052607,0,0,1
821,'2026/05/14 12:04:25:510',3,0.714058,0.889882,-0.000001,0.706669,0.454719,-0.048109,0.74053,0.8003,-0.05169,0,0,1
822,'2026/05/14 12:04:25:548',3,0.715214,0.891627,-0.000001,0.705846,0.454334,-0.048716,0.740944,0.800652,-0.0531,0,0,1
823,'2026/05/14 12:04:25:576',3,0.714739,0.8918,-0.000001,0.705306,0.455264,-0.047602,0.740998,0.801814,-0.052038,0,0,1
824,'2026/05/14 12:04:25:607',3,0.713548,0.890436,-0.000001,0.703271,0.453344,-0.052755,0.739667,0.801502,-0.053886,0,0,1
825,'2026/05/14 12:04:25:637',3,0.712746,0.889367,-0.000001,0.702343,0.453572,-0.053531,0.738459,0.801954,-0.053922,0,0,1
826,'2026/05/14 12:04:25:669',3,0.713181,0.891299,-0.000001,0.702495,0.453027,-0.050784,0.741244,0.800752,-0.052861,0,0,1
827,'2026/05/14 12:04:25:700',3,0.713132,0.889595,-0.000001,0.701459,0.452788,-0.053441,0.739844,0.802513,-0.05465,0,0,1
828,'2026/05/14 12:04:25:731',3,0.711322,0.888083,-0.000001,0.700641,0.452843,-0.054085,0.737915,0.802326,-0.053919,0,0,1
829,'2026/05/14 12:04:25:762',3,0.710492,0.888081,-0.000001,0.700612,0.454067,-0.052264,0.736196,0.803074,-0.052638,0,0,1
830,'2026/05/14 12:04:25:808',3,0.709699,0.888006,-0.000001,0.701141,0.453355,-0.052765,0.736679,0.801681,-0.052611,0,0,1
831,'2026/05/14 12:04:25:844',3,0.710209,0.888229,-0.000001,0.699575,0.453386,-0.051839,0.737854,0.801238,-0.053106,0,0,1
832,'2026/05/14 12:04:25:874',3,0.710377,0.888509,-0.000001,0.699797,0.45307,-0.051952,0.737299,0.801761,-0.052989,0,0,1
833,'2026/05/14 12:04:25:904',3,0.709473,0.887531,-0.000001,0.699412,0.452161,-0.051451,0.734937,0.802061,-0.052371,0,0,1
834,'2026/05/14 12:04:25:934',3,0.710078,0.886197,-0.000001,0.699048,0.451251,-0.051822,0.737662,0.801086,-0.053274,0,0,1
835,'2026/05/14 12:04:25:967',3,0.709897,0.886797,-0.000001,0.698637,0.453141,-0.054584,0.735822,0.803682,-0.053217,0,0,1
836,'2026/05/14 12:04:25:998',3,0.710884,0.888898,-0.000001,0.700029,0.450374,-0.051708,0.738675,0.801141,-0.052735,0,0,1
837,'2026/05/14 12:04:26:030',3,0.711997,0.886997,-0.000001,0.701165,0.450513,-0.053767,0.738081,0.801197,-0.0538,0,0,1
838,'2026/05/14 12:04:26:061',3,0.712333,0.886686,-0.000001,0.70079,0.450352,-0.053333,0.738743,0.801703,-0.053661,0,0,1
839,'2026/05/14 12:04:26:092',3,0.713763,0.889329,-0.000001,0.701247,0.450739,-0.052481,0.740319,0.801791,-0.053944,0,0,1
840,'2026/05/14 12:04:26:124',3,0.71424,0.889507,-0.000001,0.701557,0.450323,-0.050493,0.740789,0.801886,-0.05349,0,0,1
841,'2026/05/14 12:04:26:155',3,0.712998,0.888368,-0.000001,0.700979,0.451161,-0.053996,0.739588,0.802066,-0.05471,0,0,1
842,'2026/05/14 12:04:26:187',3,0.712462,0.888173,-0.000001,0.701496,0.450677,-0.051323,0.738202,0.80167,-0.054105,0,0,1
843,'2026/05/14 12:04:26:219',3,0.712866,0.887713,-0.000001,0.70206,0.452533,-0.052214,0.739372,0.801829,-0.053399,0,0,1
844,'2026/05/14 12:04:26:251',3,0.71365,0.890881,-0.000001,0.701779,0.453308,-0.051834,0.740296,0.801844,-0.053335,0,0,1
845,'2026/05/14 12:04:26:301',3,0.713514,0.888446,-0.000001,0.70164,0.453622,-0.052125,0.740382,0.80145,-0.052661,0,0,1
846,'2026/05/14 12:04:26:335',3,0.712919,0.887285,-0.000001,0.700896,0.452392,-0.05233,0.739257,0.801624,-0.054247,0,0,1
847,'2026/05/14 12:04:26:376',3,0.712378,0.88753,-0.000001,0.701791,0.453783,-0.052203,0.739563,0.80148,-0.052954,0,0,1
848,'2026/05/14 12:04:26:404',3,0.713464,0.890328,-0.000001,0.701012,0.454317,-0.05003,0.741414,0.801464,-0.052781,0,0,1
849,'2026/05/14 12:04:26:437',3,0.711302,0.886852,-0.000001,0.700976,0.454273,-0.052079,0.739214,0.801806,-0.053216,0,0,1
850,'2026/05/14 12:04:26:469',3,0.712414,0.888757,-0.000001,0.700438,0.454535,-0.052192,0.739534,0.800833,-0.052665,0,0,1
851,'2026/05/14 12:04:26:500',3,0.711484,0.888251,-0.000001,0.700572,0.45471,-0.053434,0.73806,0.802066,-0.05329,0,0,1
852,'2026/05/14 12:04:26:532',3,0.711686,0.888027,-0.000001,0.699576,0.455239,-0.0556,0.736788,0.801534,-0.053544,0,0,1
853,'2026/05/14 12:04:26:563',3,0.709903,0.885843,-0.000001,0.69965,0.454435,-0.051972,0.737294,0.801767,-0.052585,0,0,1
854,'2026/05/14 12:04:26:594',3,0.71087,0.888291,-0.000001,0.698664,0.457435,-0.055098,0.735552,0.802075,-0.053602,0,0,1
855,'2026/05/14 12:04:26:628',3,0.710857,0.88834,-0.000001,0.699634,0.454616,-0.051936,0.736513,0.802227,-0.053044,0,0,1
856,'2026/05/14 12:04:26:659',3,0.711834,0.887298,-0.000001,0.698926,0.453992,-0.052853,0.736784,0.801787,-0.055073,0,0,1
857,'2026/05/14 12:04:26:691',3,0.711547,0.890581,-0.000001,0.697398,0.457506,-0.052233,0.734617,0.804032,-0.052648,0,0,1
858,'2026/05/14 12:04:26:725',3,0.711779,0.888382,-0.000001,0.697274,0.454553,-0.053248,0.736756,0.803751,-0.054387,0,0,1
859,'2026/05/14 12:04:26:757',3,0.709638,0.889025,-0.000001,0.696712,0.455197,-0.050365,0.736832,0.801754,-0.052128,0,0,1
860,'2026/05/14 12:04:26:788',3,0.711127,0.889739,-0.000001,0.695126,0.455499,-0.05302,0.73598,0.802822,-0.054401,0,0,1
861,'2026/05/14 12:04:26:820',3,0.711403,0.890112,-0.000001,0.694124,0.455191,-0.053787,0.734619,0.802957,-0.053731,0,0,1
862,'2026/05/14 12:04:26:849',3,0.710604,0.891399,-0.000001,0.6932,0.455721,-0.051711,0.734772,0.801756,-0.053036,0,0,1
863,'2026/05/14 12:04:26:883',3,0.709672,0.891478,-0.000001,0.691709,0.456782,-0.0534,0.732308,0.802807,-0.052814,0,0,1
864,'2026/05/14 12:04:26:913',3,0.709106,0.890818,-0.000001,0.692969,0.455769,-0.049634,0.734244,0.801595,-0.05195,0,0,1
865,'2026/05/14 12:04:26:948',3,0.710787,0.893464,-0.000001,0.692778,0.45494,-0.049429,0.73424,0.802694,-0.052809,0,0,1
866,'2026/05/14 12:04:26:977',3,0.710415,0.890963,-0.000001,0.691865,0.453989,-0.049702,0.734754,0.801836,-0.053252,0,0,1
867,'2026/05/14 12:04:27:010',3,0.709584,0.892968,-0.000001,0.692001,0.453679,-0.050708,0.735582,0.801988,-0.052868,0,0,1
868,'2026/05/14 12:04:27:041',3,0.709527,0.89192,-0.000001,0.690692,0.454346,-0.051472,0.73236,0.803436,-0.052871,0,0,1
869,'2026/05/14 12:04:27:073',3,0.70978,0.895066,-0.000001,0.691228,0.454224,-0.047107,0.732227,0.803842,-0.050776,0,0,1
870,'2026/05/14 12:04:27:108',3,0.709372,0.891022,-0.000001,0.691869,0.455026,-0.0519,0.731843,0.802303,-0.053948,0,0,1
871,'2026/05/14 12:04:27:135',3,0.709784,0.89136,-0.000001,0.691566,0.454382,-0.048595,0.733706,0.801925,-0.052458,0,0,1
872,'2026/05/14 12:04:27:167',3,0.710029,0.894205,-0.000001,0.691192,0.454596,-0.050999,0.732194,0.802883,-0.05211,0,0,1
873,'2026/05/14 12:04:27:200',3,0.709307,0.891322,-0.000001,0.691827,0.454314,-0.049369,0.733404,0.802417,-0.052289,0,0,1
874,'2026/05/14 12:04:27:232',3,0.71004,0.894008,-0.000001,0.690309,0.454662,-0.052182,0.733645,0.804093,-0.053543,0,0,1
875,'2026/05/14 12:04:27:263',3,0.709081,0.890875,-0.000001,0.690857,0.455612,-0.050577,0.73312,0.803603,-0.052616,0,0,1
876,'2026/05/14 12:04:27:294',3,0.709952,0.89221,-0.000001,0.689998,0.45402,-0.052643,0.734643,0.802927,-0.054148,0,0,1
877,'2026/05/14 12:04:27:327',3,0.709086,0.889706,-0.000001,0.69001,0.454057,-0.053628,0.732289,0.804106,-0.054167,0,0,1
878,'2026/05/14 12:04:27:358',3,0.709202,0.89185,-0.000001,0.689716,0.45378,-0.049804,0.729801,0.804134,-0.052817,0,0,1
879,'2026/05/14 12:04:27:389',3,0.709076,0.891265,-0.000001,0.690092,0.454106,-0.053679,0.73294,0.804087,-0.055144,0,0,1
880,'2026/05/14 12:04:27:420',3,0.708314,0.891156,-0.000001,0.690092,0.454973,-0.051258,0.7321,0.802855,-0.052351,0,0,1
881,'2026/05/14 12:04:45:179',4,0.692652,0.891707,0,0.555799,0.427381,-0.073008,0.689176,0.737246,-0.044539,1,1,0
882,'2026/05/14 12:04:45:209',4,0.691613,0.894373,0,0.559456,0.430957,-0.069781,0.687983,0.735365,-0.04165,1,1,0
883,'2026/05/14 12:04:45:267',4,0.692857,0.892756,0,0.560448,0.431946,-0.067079,0.688907,0.73575,-0.03961,1,1,0
884,'2026/05/14 12:04:45:326',4,0.695474,0.891075,0,0.562232,0.430294,-0.069094,0.691355,0.735801,-0.040263,1,1,0
885,'2026/05/14 12:04:45:358',4,0.697169,0.889211,0,0.565113,0.429964,-0.07208,0.694554,0.736003,-0.041481,1,1,0
886,'2026/05/14 12:04:45:381',4,0.698409,0.889243,0,0.568836,0.429775,-0.073191,0.697741,0.735548,-0.042851,1,1,0
887,'2026/05/14 12:04:45:413',4,0.69833,0.888313,0,0.571313,0.430912,-0.0738,0.699853,0.733797,-0.040484,1,1,0
888,'2026/05/14 12:04:45:446',4,0.701819,0.889953,0,0.571809,0.427563,-0.076391,0.701064,0.737339,-0.045123,1,1,0
889,'2026/05/14 12:04:45:484',4,0.7027,0.888282,0,0.572863,0.427226,-0.073083,0.700674,0.738175,-0.043497,1,1,0
890,'2026/05/14 12:04:45:506',4,0.701009,0.888487,0,0.574233,0.424748,-0.074332,0.700819,0.737004,-0.043497,1,1,0
891,'2026/05/14 12:04:45:539',4,0.70208,0.888369,0,0.573465,0.424859,-0.079048,0.699387,0.737811,-0.048895,1,1,0
892,'2026/05/14 12:04:45:571',4,0.701477,0.888121,0,0.574527,0.421776,-0.078509,0.699714,0.736797,-0.047623,1,1,0
893,'2026/05/14 12:04:45:603',4,0.702231,0.88731,0,0.576572,0.42524,-0.075281,0.699492,0.734019,-0.043442,1,1,0
894,'2026/05/14 12:04:45:632',4,0.701201,0.89018,0,0.57869,0.429155,-0.070757,0.700229,0.734103,-0.040436,1,1,0
895,'2026/05/14 12:04:45:664',4,0.699815,0.889897,0,0.580286,0.425842,-0.071193,0.699692,0.732427,-0.040439,1,1,0
896,'2026/05/14 12:04:45:695',4,0.70093,0.888733,0,0.580322,0.426207,-0.070423,0.698745,0.734156,-0.040908,1,1,0
897,'2026/05/14 12:04:45:728',4,0.70162,0.89019,0,0.579281,0.426071,-0.065248,0.698921,0.731428,-0.037801,1,1,0
898,'2026/05/14 12:04:45:758',4,0.701451,0.887889,0,0.577857,0.4278,-0.068363,0.69911,0.733237,-0.042226,1,1,0
899,'2026/05/14 12:04:45:798',4,0.701594,0.888276,0,0.579177,0.427635,-0.066272,0.698114,0.732799,-0.0395,1,1,0
900,'2026/05/14 12:04:45:830',4,0.702306,0.888116,0,0.580347,0.428312,-0.067965,0.70011,0.734061,-0.040468,1,1,0
901,'2026/05/14 12:04:45:873',4,0.701632,0.889948,0,0.581332,0.423865,-0.070779,0.699864,0.73288,-0.042187,1,1,0
902,'2026/05/14 12:04:45:902',4,0.702545,0.891082,0,0.582037,0.427919,-0.070595,0.700536,0.731912,-0.039713,1,1,0
903,'2026/05/14 12:04:45:957',4,0.703998,0.889835,0,0.582452,0.424923,-0.071128,0.70184,0.73282,-0.041123,1,1,0
904,'2026/05/14 12:04:45:995',4,0.702494,0.891449,0,0.582928,0.42861,-0.071542,0.700322,0.732369,-0.03975,1,1,0
905,'2026/05/14 12:04:46:036',4,0.701221,0.889475,0,0.581746,0.424572,-0.070868,0.700439,0.731861,-0.041128,1,1,0
906,'2026/05/14 12:04:46:076',4,0.70031,0.890204,0,0.580642,0.427093,-0.068065,0.698981,0.731493,-0.039436,1,1,0
907,'2026/05/14 12:04:46:105',4,0.698873,0.889486,0,0.578235,0.430763,-0.073755,0.69536,0.73449,-0.041115,1,1,0
908,'2026/05/14 12:04:46:139',4,0.698529,0.887587,0,0.579197,0.430347,-0.074512,0.696084,0.73359,-0.043064,1,1,0
909,'2026/05/14 12:04:46:170',4,0.697604,0.886832,0,0.577593,0.427825,-0.077225,0.694507,0.735918,-0.045169,1,1,0
910,'2026/05/14 12:04:46:198',4,0.698701,0.888522,0,0.576651,0.429451,-0.075654,0.695999,0.734664,-0.044086,1,1,0
911,'2026/05/14 12:04:46:230',4,0.697266,0.889151,0,0.576648,0.428355,-0.073963,0.695145,0.735412,-0.044034,1,1,0
912,'2026/05/14 12:04:46:261',4,0.696955,0.887684,0,0.576682,0.429578,-0.077757,0.695388,0.735375,-0.046528,1,1,0
913,'2026/05/14 12:04:46:294',4,0.698422,0.88878,0,0.577609,0.428388,-0.075169,0.695934,0.734453,-0.04486,1,1,0
914,'2026/05/14 12:04:46:324',4,0.699392,0.886004,0,0.577592,0.42882,-0.072937,0.697836,0.735658,-0.044053,1,1,0
915,'2026/05/14 12:04:46:364',4,0.700097,0.888809,0,0.579875,0.431666,-0.074737,0.697363,0.734013,-0.044451,1,1,0
916,'2026/05/14 12:04:46:403',4,0.699826,0.886542,0,0.577596,0.427574,-0.076324,0.698747,0.73635,-0.047052,1,1,0
917,'2026/05/14 12:04:46:436',4,0.698924,0.887343,0,0.57865,0.428556,-0.074188,0.698167,0.734759,-0.044783,1,1,0
918,'2026/05/14 12:04:46:468',4,0.699354,0.88872,0,0.578264,0.426033,-0.072162,0.697166,0.734471,-0.043573,1,1,0
919,'2026/05/14 12:04:46:500',4,0.699177,0.888757,0,0.577584,0.424989,-0.071389,0.697433,0.73393,-0.042546,1,1,0
920,'2026/05/14 12:04:46:531',4,0.699576,0.891876,0,0.579537,0.426326,-0.071429,0.697152,0.732715,-0.042405,1,1,0
921,'2026/05/14 12:04:46:563',4,0.699228,0.888946,0,0.578295,0.423962,-0.074831,0.69692,0.73563,-0.045387,1,1,0
922,'2026/05/14 12:04:46:596',4,0.700925,0.889193,0,0.577055,0.422252,-0.071583,0.696581,0.735419,-0.045188,1,1,0
923,'2026/05/14 12:04:46:634',4,0.699778,0.888682,0,0.578861,0.42329,-0.074236,0.697707,0.734517,-0.043563,1,1,0
924,'2026/05/14 12:04:46:667',4,0.698784,0.887446,0,0.57842,0.425173,-0.07645,0.697017,0.733546,-0.044887,1,1,0
925,'2026/05/14 12:04:46:698',4,0.700628,0.888401,0,0.579557,0.426744,-0.075215,0.696828,0.734862,-0.043506,1,1,0
926,'2026/05/14 12:04:46:731',4,0.700985,0.891439,0,0.580255,0.426529,-0.069011,0.696944,0.733546,-0.041323,1,1,0
927,'2026/05/14 12:04:46:760',4,0.700529,0.892931,0,0.578987,0.423278,-0.071048,0.698532,0.73142,-0.04121,1,1,0
928,'2026/05/14 12:04:46:820',4,0.700943,0.890046,0,0.579946,0.425811,-0.070745,0.698459,0.731998,-0.041289,1,1,0
929,'2026/05/14 12:04:46:859',4,0.701572,0.889339,0,0.580362,0.426937,-0.072391,0.698869,0.732684,-0.042382,1,1,0
930,'2026/05/14 12:04:46:886',4,0.702699,0.889702,0,0.581375,0.422589,-0.072279,0.698354,0.733739,-0.043914,1,1,0
931,'2026/05/14 12:04:46:931',4,0.702153,0.891544,0,0.580249,0.420723,-0.06653,0.700088,0.732287,-0.040514,1,1,0
932,'2026/05/14 12:04:46:965',4,0.701812,0.890258,0,0.580809,0.421224,-0.071219,0.699843,0.733104,-0.042426,1,1,0
933,'2026/05/14 12:04:46:999',4,0.703099,0.891533,0,0.582225,0.423733,-0.06892,0.697577,0.731878,-0.041457,1,1,0
934,'2026/05/14 12:04:47:030',4,0.702003,0.889476,0,0.583404,0.423136,-0.071349,0.698994,0.733016,-0.044785,1,1,0
935,'2026/05/14 12:04:47:062',4,0.703528,0.889774,0,0.583003,0.422314,-0.071172,0.699012,0.73297,-0.044015,1,1,0
936,'2026/05/14 12:04:47:092',4,0.702605,0.888284,0,0.582915,0.420495,-0.072347,0.700412,0.734138,-0.044042,1,1,0
937,'2026/05/14 12:04:47:122',4,0.703037,0.890322,0,0.582494,0.42113,-0.068005,0.700638,0.732617,-0.041943,1,1,0
938,'2026/05/14 12:04:47:159',4,0.70367,0.889959,0,0.583947,0.423004,-0.070387,0.701624,0.731813,-0.044929,1,1,0
939,'2026/05/14 12:04:47:188',4,0.703185,0.887315,0,0.583432,0.420833,-0.072511,0.70009,0.734508,-0.045505,1,1,0
940,'2026/05/14 12:04:47:231',4,0.703593,0.888292,0,0.584845,0.421915,-0.072119,0.702863,0.733092,-0.043278,1,1,0
941,'2026/05/14 12:04:47:266',4,0.706752,0.892562,0,0.583493,0.418152,-0.068911,0.702336,0.732355,-0.042221,1,1,0
942,'2026/05/14 12:04:47:298',4,0.707447,0.889038,0,0.586206,0.419497,-0.070913,0.704325,0.732053,-0.041894,1,1,0
943,'2026/05/14 12:04:47:327',4,0.710587,0.888713,0,0.586943,0.420471,-0.071502,0.708753,0.732391,-0.041158,1,1,0
944,'2026/05/14 12:04:47:359',4,0.713428,0.887962,0,0.590779,0.418566,-0.075759,0.71338,0.731848,-0.043805,1,1,0
945,'2026/05/14 12:04:47:403',4,0.714927,0.885861,0,0.59638,0.415833,-0.075544,0.71916,0.731699,-0.042989,1,1,0
946,'2026/05/14 12:04:47:438',4,0.718838,0.885843,0,0.59931,0.416019,-0.075113,0.724578,0.729797,-0.041016,1,1,0
947,'2026/05/14 12:04:47:483',4,0.722436,0.885596,0,0.601955,0.408599,-0.073057,0.728323,0.731486,-0.041537,1,1,0
948,'2026/05/14 12:04:47:519',4,0.725434,0.883535,0,0.607433,0.409889,-0.077939,0.732689,0.731183,-0.044259,1,1,0
949,'2026/05/14 12:04:47:548',4,0.729001,0.884241,0,0.609845,0.409204,-0.076868,0.736728,0.731067,-0.04343,1,1,0
950,'2026/05/14 12:04:47:580',4,0.731369,0.885188,0,0.613523,0.40712,-0.072196,0.73878,0.730825,-0.042557,1,1,0
951,'2026/05/14 12:04:47:615',4,0.732962,0.887237,0,0.613383,0.407317,-0.074059,0.741315,0.731805,-0.04248,1,1,0
952,'2026/05/14 12:04:47:648',4,0.734886,0.885244,0,0.616367,0.40665,-0.070424,0.745005,0.732631,-0.041344,1,1,0
953,'2026/05/14 12:04:47:673',4,0.737493,0.886623,0,0.619189,0.406452,-0.069882,0.748222,0.732471,-0.041418,1,1,0
954,'2026/05/14 12:04:47:704',4,0.742223,0.884872,0,0.623142,0.404686,-0.070104,0.754039,0.731716,-0.041555,1,1,0
955,'2026/05/14 12:04:47:736',4,0.746745,0.883201,0,0.627225,0.402522,-0.071995,0.75953,0.73171,-0.04298,1,1,0
956,'2026/05/14 12:04:47:769',4,0.753742,0.883691,0,0.631289,0.398508,-0.075461,0.766171,0.730308,-0.045912,1,1,0
957,'2026/05/14 12:04:47:802',4,0.759083,0.882646,0,0.634293,0.394068,-0.079259,0.77233,0.730542,-0.046695,1,1,0
958,'2026/05/14 12:04:47:831',4,0.763118,0.88198,0,0.635326,0.387063,-0.076589,0.778622,0.731582,-0.046588,1,1,0
959,'2026/05/14 12:04:47:863',4,0.763828,0.884137,0,0.638094,0.384851,-0.080201,0.781157,0.72907,-0.046238,1,1,0
960,'2026/05/14 12:04:47:895',4,0.762349,0.886443,0,0.638195,0.377588,-0.078642,0.785982,0.730194,-0.04417,1,1,0
961,'2026/05/14 12:04:47:926',4,0.761364,0.883938,0,0.639341,0.373454,-0.07853,0.786389,0.732093,-0.045173,1,1,0
962,'2026/05/14 12:04:47:957',4,0.758556,0.884212,0,0.637932,0.370562,-0.079481,0.784722,0.736682,-0.046098,1,1,0
963,'2026/05/14 12:04:47:996',4,0.753902,0.882269,0,0.635864,0.381343,-0.081283,0.783867,0.737741,-0.046526,1,1,0
964,'2026/05/14 12:04:48:021',4,0.749345,0.885308,0,0.631944,0.37484,-0.089086,0.779842,0.739074,-0.050038,1,1,0
965,'2026/05/14 12:04:48:053',4,0.746799,0.888536,0,0.626132,0.367866,-0.095878,0.776248,0.741275,-0.050281,1,1,0
966,'2026/05/14 12:04:48:083',4,0.74368,0.893837,0,0.618859,0.364738,-0.097289,0.771682,0.743376,-0.050377,1,1,0
967,'2026/05/14 12:04:48:116',4,0.738412,0.89617,0,0.614236,0.364242,-0.092691,0.767576,0.746934,-0.052507,1,1,0
968,'2026/05/14 12:04:48:146',4,0.738801,0.899991,0,0.607273,0.361779,-0.096475,0.763791,0.750636,-0.057054,1,1,0
969,'2026/05/14 12:04:48:179',4,0.735089,0.904826,0,0.598104,0.3595,-0.105031,0.757966,0.753706,-0.062005,1,1,0
970,'2026/05/14 12:04:48:210',4,0.731561,0.904926,0.000001,0.589101,0.354118,-0.112787,0.754544,0.754688,-0.06928,1,1,0
971,'2026/05/14 12:04:48:242',4,0.725777,0.908264,0,0.588064,0.358361,-0.107531,0.749212,0.757746,-0.060107,1,1,0
972,'2026/05/14 12:04:48:277',4,0.722626,0.911265,0,0.583547,0.355987,-0.105561,0.746914,0.762837,-0.060951,1,1,0
973,'2026/05/14 12:04:48:305',4,0.722063,0.91647,0,0.577836,0.356676,-0.110867,0.744663,0.764925,-0.065454,1,1,0
974,'2026/05/14 12:04:48:337',4,0.718964,0.917164,0,0.578479,0.351311,-0.105297,0.744495,0.767897,-0.058816,1,1,0
975,'2026/05/14 12:04:48:368',4,0.719664,0.9178,0,0.577939,0.355996,-0.112685,0.743974,0.767322,-0.061979,1,1,0
976,'2026/05/14 12:04:48:399',4,0.717811,0.91654,0,0.576742,0.347418,-0.116185,0.747135,0.764322,-0.060516,1,1,0
977,'2026/05/14 12:04:48:437',4,0.717508,0.920199,0,0.576479,0.348822,-0.110532,0.74654,0.767923,-0.060422,1,1,0
978,'2026/05/14 12:04:48:467',4,0.718456,0.921673,0,0.576348,0.349916,-0.110928,0.74405,0.769154,-0.061227,1,1,0
979,'2026/05/14 12:04:48:499',4,0.717205,0.923786,0,0.576133,0.344505,-0.118523,0.746861,0.767536,-0.060887,1,1,0
980,'2026/05/14 12:04:48:543',4,0.716498,0.92242,0,0.577438,0.345593,-0.112362,0.748043,0.769242,-0.056653,1,1,0
981,'2026/05/14 12:04:48:572',4,0.71602,0.918911,0,0.581822,0.351598,-0.111967,0.748734,0.768162,-0.059199,1,1,0
982,'2026/05/14 12:04:48:604',4,0.720416,0.918381,0,0.5781,0.347579,-0.111296,0.751806,0.767029,-0.058828,1,1,0
983,'2026/05/14 12:04:48:634',4,0.723555,0.917853,0,0.580004,0.34862,-0.111435,0.751505,0.768043,-0.06064,1,1,0
984,'2026/05/14 12:04:48:666',4,0.725243,0.916626,0,0.580601,0.347512,-0.123392,0.760391,0.764454,-0.062329,1,1,0
985,'2026/05/14 12:04:48:701',4,0.728186,0.918728,0,0.580378,0.351219,-0.120769,0.761244,0.764825,-0.060388,1,1,0
986,'2026/05/14 12:04:48:729',4,0.726027,0.918166,0,0.585689,0.344799,-0.116554,0.759329,0.765237,-0.060278,1,1,0
987,'2026/05/14 12:04:48:761',4,0.726786,0.921641,0,0.585418,0.34431,-0.119627,0.759206,0.764985,-0.062371,1,1,0
988,'2026/05/14 12:04:48:792',4,0.724444,0.917989,0,0.585962,0.344318,-0.110547,0.759,0.762838,-0.056106,1,1,0
989,'2026/05/14 12:04:48:835',4,0.724025,0.916336,0,0.584666,0.347023,-0.110405,0.75821,0.762545,-0.055565,1,1,0
990,'2026/05/14 12:04:48:870',4,0.728759,0.915005,0,0.582556,0.353507,-0.119962,0.762245,0.762859,-0.061621,1,1,0
991,'2026/05/14 12:04:48:902',4,0.727636,0.915396,0,0.582001,0.352439,-0.115133,0.756752,0.761409,-0.06088,1,1,0
992,'2026/05/14 12:04:48:934',4,0.721264,0.913067,0,0.58434,0.355816,-0.108451,0.752269,0.762569,-0.058113,1,1,0
993,'2026/05/14 12:04:48:967',4,0.721882,0.912709,0,0.582173,0.354455,-0.116056,0.748947,0.764492,-0.061051,1,1,0
994,'2026/05/14 12:04:48:996',4,0.721955,0.91664,0,0.580107,0.352612,-0.11274,0.747373,0.764841,-0.059726,1,1,0
995,'2026/05/14 12:04:49:029',4,0.721641,0.917033,0,0.578542,0.358373,-0.117365,0.747146,0.766546,-0.06167,1,1,0
996,'2026/05/14 12:04:49:059',4,0.72195,0.916473,0,0.579191,0.355759,-0.116968,0.746548,0.765853,-0.062188,1,1,0
997,'2026/05/14 12:04:49:091',4,0.724657,0.914926,0,0.576696,0.357253,-0.114307,0.74965,0.763591,-0.063955,1,1,0
998,'2026/05/14 12:04:49:125',4,0.724435,0.915029,0,0.576831,0.356841,-0.110306,0.749435,0.76311,-0.062897,1,1,0
999,'2026/05/14 12:04:49:155',4,0.724311,0.910892,0.000001,0.574262,0.352705,-0.114115,0.751668,0.762802,-0.064665,1,1,0
1000,'2026/05/14 12:04:49:187',4,0.722493,0.911853,0.000001,0.578499,0.357823,-0.115842,0.7504,0.76347,-0.066156,1,1,0
1001,'2026/05/14 12:04:49:246',4,0.723655,0.912482,0.000001,0.579109,0.355717,-0.114535,0.746153,0.763091,-0.068834,1,1,0
1002,'2026/05/14 12:04:49:284',4,0.722759,0.910294,0.000001,0.578006,0.356312,-0.11772,0.746078,0.763533,-0.070467,1,1,0
1003,'2026/05/14 12:04:49:312',4,0.72193,0.907125,0.000001,0.577275,0.358428,-0.121028,0.746765,0.761756,-0.072045,1,1,0
1004,'2026/05/14 12:04:49:346',4,0.72085,0.903259,0,0.580885,0.368573,-0.117122,0.74427,0.762172,-0.068906,1,1,0
1005,'2026/05/14 12:04:49:375',4,0.718425,0.902161,0,0.580866,0.371201,-0.117179,0.741454,0.761066,-0.06719,1,1,0
1006,'2026/05/14 12:04:49:411',4,0.713756,0.902749,0,0.58305,0.381885,-0.110246,0.742179,0.760424,-0.060564,1,1,0
1007,'2026/05/14 12:04:49:441',4,0.716706,0.902624,0,0.574509,0.371465,-0.118404,0.742366,0.757943,-0.064578,1,1,0
1008,'2026/05/14 12:04:49:472',4,0.719703,0.901108,0.000001,0.566742,0.360986,-0.115191,0.74023,0.758657,-0.064862,1,1,0
1009,'2026/05/14 12:04:49:503',4,0.715665,0.89291,0.000001,0.568393,0.371992,-0.128676,0.738346,0.766,-0.064851,1,1,0
1010,'2026/05/14 12:04:49:534',4,0.716119,0.905163,0.000001,0.563093,0.357248,-0.129665,0.738943,0.764297,-0.068237,1,1,0
1011,'2026/05/14 12:04:49:564',4,0.716916,0.905613,0.000001,0.562334,0.360098,-0.128938,0.735615,0.762968,-0.068786,1,1,0
1012,'2026/05/14 12:04:49:599',4,0.715302,0.907478,0.000001,0.562363,0.364136,-0.123271,0.73503,0.76292,-0.066412,1,1,0
1013,'2026/05/14 12:04:49:637',4,0.715607,0.912544,0.000001,0.564267,0.362636,-0.127023,0.733704,0.767501,-0.071397,1,1,0
1014,'2026/05/14 12:04:49:670',4,0.715502,0.910034,0,0.566616,0.365802,-0.125494,0.735772,0.765981,-0.067205,1,1,0
1015,'2026/05/14 12:04:49:699',4,0.711934,0.90656,0,0.570405,0.37336,-0.125445,0.735279,0.766364,-0.065655,1,1,0
1016,'2026/05/14 12:04:49:732',4,0.710566,0.903133,0,0.573949,0.375562,-0.128681,0.736975,0.761734,-0.066983,1,1,0
1017,'2026/05/14 12:04:49:764',4,0.712232,0.908771,0,0.571278,0.367419,-0.119128,0.734258,0.764503,-0.065428,1,1,0
1018,'2026/05/14 12:04:49:801',4,0.711114,0.909652,0,0.575481,0.371795,-0.114934,0.734399,0.761328,-0.063377,1,1,0
1019,'2026/05/14 12:04:49:833',4,0.708423,0.903777,0,0.580486,0.378114,-0.115823,0.738291,0.759059,-0.064862,1,1,0
1020,'2026/05/14 12:04:49:863',4,0.713972,0.907726,0,0.573723,0.359659,-0.126522,0.738743,0.758915,-0.065617,1,1,0
1021,'2026/05/14 12:04:49:895',4,0.711302,0.90424,0,0.579276,0.374535,-0.111626,0.737752,0.75872,-0.061605,1,1,0
1022,'2026/05/14 12:04:49:926',4,0.710179,0.911722,0,0.577021,0.366707,-0.11284,0.739427,0.758461,-0.0551,1,1,0
1023,'2026/05/14 12:04:49:961',4,0.713025,0.910371,0,0.576611,0.365745,-0.110523,0.739867,0.758343,-0.054542,1,1,0
1024,'2026/05/14 12:04:49:990',4,0.715077,0.908437,0,0.579583,0.365264,-0.110461,0.742808,0.757073,-0.055129,1,1,0
1025,'2026/05/14 12:04:50:037',4,0.718628,0.910147,0,0.584366,0.3604,-0.112032,0.745355,0.760801,-0.058014,1,1,0
1026,'2026/05/14 12:04:50:072',4,0.720624,0.908304,0,0.585525,0.360545,-0.107741,0.746697,0.756678,-0.056821,1,1,0
1027,'2026/05/14 12:04:50:102',4,0.725785,0.900903,0,0.588336,0.359132,-0.119733,0.750583,0.756969,-0.062825,1,1,0
1028,'2026/05/14 12:04:50:134',4,0.728974,0.91024,0,0.590487,0.359657,-0.116147,0.752524,0.755706,-0.059306,1,1,0
1029,'2026/05/14 12:04:50:166',4,0.731596,0.908527,0,0.59265,0.364378,-0.115617,0.755295,0.757079,-0.061548,1,1,0
1030,'2026/05/14 12:04:50:196',4,0.728588,0.908413,0,0.598464,0.357677,-0.118218,0.759143,0.756344,-0.0589,1,1,0
1031,'2026/05/14 12:04:50:235',4,0.731185,0.907871,0,0.602232,0.357125,-0.116591,0.760826,0.753112,-0.061099,1,1,0
1032,'2026/05/14 12:04:50:267',4,0.732444,0.90521,0,0.602547,0.359259,-0.116152,0.759345,0.751403,-0.058451,1,1,0
1033,'2026/05/14 12:04:50:292',4,0.731155,0.905284,0,0.604186,0.356384,-0.111566,0.761068,0.752792,-0.05792,1,1,0
1034,'2026/05/14 12:04:50:325',4,0.729712,0.903229,0,0.605544,0.358335,-0.112724,0.760816,0.751551,-0.059448,1,1,0
1035,'2026/05/14 12:04:50:362',4,0.73301,0.903355,0,0.602906,0.366601,-0.111625,0.757487,0.753382,-0.062812,1,1,0
1036,'2026/05/14 12:04:50:399',4,0.732406,0.903016,0,0.601587,0.373381,-0.107011,0.754875,0.752302,-0.062215,1,1,0
1037,'2026/05/14 12:04:50:437',4,0.729141,0.899533,0,0.604012,0.370359,-0.103057,0.752647,0.75086,-0.058325,1,1,0
1038,'2026/05/14 12:04:50:471',4,0.729044,0.89988,0,0.600633,0.375756,-0.097573,0.749803,0.747015,-0.058087,1,1,0
1039,'2026/05/14 12:04:50:509',4,0.72837,0.895997,0,0.600664,0.385443,-0.098736,0.746302,0.745622,-0.057,1,1,0
1040,'2026/05/14 12:04:50:540',4,0.727288,0.892182,0,0.599415,0.385178,-0.100064,0.74479,0.745323,-0.054869,1,1,0
1041,'2026/05/14 12:04:50:571',4,0.72721,0.89321,0,0.601059,0.387139,-0.098601,0.743884,0.745627,-0.056712,1,1,0
1042,'2026/05/14 12:04:50:604',4,0.724849,0.893838,0,0.601254,0.388707,-0.095945,0.743303,0.745084,-0.053358,1,1,0
1043,'2026/05/14 12:04:50:634',4,0.72639,0.891551,0,0.601173,0.389359,-0.091218,0.74154,0.746589,-0.053582,1,1,0
1044,'2026/05/14 12:04:50:672',4,0.724945,0.890998,0,0.599967,0.394088,-0.092028,0.740381,0.74592,-0.051675,1,1,0
1045,'2026/05/14 12:04:50:697',4,0.722609,0.890597,0,0.598754,0.393299,-0.090236,0.73769,0.745923,-0.05281,1,1,0
1046,'2026/05/14 12:04:50:728',4,0.723167,0.89074,0,0.59585,0.399493,-0.092674,0.736451,0.744964,-0.05293,1,1,0
1047,'2026/05/14 12:04:50:760',4,0.72277,0.891109,0,0.595308,0.403233,-0.089545,0.734352,0.744619,-0.052292,1,1,0
1048,'2026/05/14 12:04:50:793',4,0.719838,0.890146,0,0.594361,0.403874,-0.088775,0.732264,0.746116,-0.050692,1,1,0
1049,'2026/05/14 12:04:50:850',4,0.718036,0.889268,0,0.593412,0.405263,-0.090377,0.72889,0.743996,-0.054348,1,1,0
1050,'2026/05/14 12:04:50:888',4,0.717634,0.886788,0,0.591376,0.406227,-0.088251,0.726629,0.744236,-0.050805,1,1,0
1051,'2026/05/14 12:04:50:919',4,0.71741,0.889085,0,0.591614,0.407089,-0.087442,0.728077,0.744587,-0.050078,1,1,0
1052,'2026/05/14 12:04:50:966',4,0.71945,0.888762,0,0.592332,0.406933,-0.08865,0.726034,0.744795,-0.053647,1,1,0
1053,'2026/05/14 12:04:51:000',4,0.71929,0.889903,0,0.591408,0.407642,-0.088192,0.727997,0.745596,-0.052741,1,1,0
1054,'2026/05/14 12:04:51:032',4,0.720126,0.88888,0,0.592049,0.40735,-0.091555,0.728791,0.745791,-0.052155,1,1,0
1055,'2026/05/14 12:04:51:059',4,0.718057,0.893268,0,0.590789,0.403687,-0.092695,0.729535,0.746008,-0.05135,1,1,0
1056,'2026/05/14 12:04:51:090',4,0.720324,0.893548,0,0.592023,0.405482,-0.089087,0.730453,0.746657,-0.05052,1,1,0
1057,'2026/05/14 12:04:51:124',4,0.721086,0.890043,0,0.593346,0.405833,-0.091951,0.730628,0.747028,-0.051035,1,1,0
1058,'2026/05/14 12:04:51:153',4,0.720955,0.889813,0,0.592676,0.404458,-0.094122,0.730202,0.746655,-0.052519,1,1,0
1059,'2026/05/14 12:04:51:186',4,0.720354,0.892029,0,0.59259,0.403773,-0.09422,0.73064,0.746982,-0.053363,1,1,0
1060,'2026/05/14 12:04:51:217',4,0.721079,0.893495,0,0.592825,0.404775,-0.088297,0.730918,0.746565,-0.049462,1,1,0
1061,'2026/05/14 12:04:51:246',4,0.720129,0.892287,0,0.592548,0.403441,-0.091295,0.730215,0.746197,-0.05177,1,1,0
1062,'2026/05/14 12:04:51:277',4,0.719014,0.894356,0,0.592309,0.403818,-0.087805,0.731915,0.745026,-0.053708,1,1,0
1063,'2026/05/14 12:04:51:310',4,0.718643,0.893859,0,0.591719,0.405108,-0.088542,0.729218,0.746644,-0.052751,1,1,0
1064,'2026/05/14 12:04:51:339',4,0.719665,0.893227,0,0.590776,0.404144,-0.087887,0.730097,0.747228,-0.051796,1,1,0
1065,'2026/05/14 12:04:51:370',4,0.718598,0.891164,0,0.589703,0.40563,-0.088436,0.729267,0.746962,-0.051663,1,1,0
1066,'2026/05/14 12:04:51:403',4,0.718056,0.89106,0,0.588165,0.406501,-0.092414,0.728499,0.748416,-0.053063,1,1,0
1067,'2026/05/14 12:04:51:434',4,0.718017,0.891621,0,0.588625,0.406208,-0.090731,0.728104,0.747824,-0.050783,1,1,0
1068,'2026/05/14 12:04:51:465',4,0.716116,0.892335,0,0.587929,0.405411,-0.091383,0.726052,0.745963,-0.052015,1,1,0
1069,'2026/05/14 12:04:51:498',4,0.716732,0.89204,0,0.586694,0.409324,-0.090269,0.72618,0.747737,-0.0539,1,1,0
1070,'2026/05/14 12:04:51:529',4,0.716309,0.891776,0,0.584975,0.408653,-0.096536,0.72436,0.746927,-0.05577,1,1,0
1071,'2026/05/14 12:04:51:561',4,0.714497,0.891345,0,0.586984,0.408482,-0.090849,0.722212,0.74711,-0.052022,1,1,0
1072,'2026/05/14 12:04:51:592',4,0.713786,0.891496,0,0.582158,0.405676,-0.095963,0.721225,0.749019,-0.053833,1,1,0
1073,'2026/05/14 12:04:51:645',4,0.71589,0.892687,0,0.583224,0.406842,-0.09237,0.721227,0.74789,-0.052225,1,1,0
1074,'2026/05/14 12:04:51:669',4,0.713394,0.893764,0,0.583156,0.406914,-0.095411,0.721031,0.745661,-0.054149,1,1,0
1075,'2026/05/14 12:04:51:702',4,0.71463,0.89281,0,0.582463,0.405072,-0.09709,0.721585,0.747362,-0.053714,1,1,0
1076,'2026/05/14 12:04:51:746',4,0.715417,0.890995,0,0.582863,0.406747,-0.097403,0.7224,0.750023,-0.055468,1,1,0
1077,'2026/05/14 12:04:51:779',4,0.715963,0.891248,0,0.583268,0.406333,-0.09261,0.721811,0.748933,-0.05107,1,1,0
1078,'2026/05/14 12:04:51:817',4,0.715555,0.890309,0,0.583631,0.406849,-0.093735,0.722246,0.748787,-0.051866,1,1,0
1079,'2026/05/14 12:04:51:842',4,0.715223,0.891547,0,0.582448,0.407679,-0.093781,0.721573,0.749751,-0.051709,1,1,0
1080,'2026/05/14 12:04:51:874',4,0.713571,0.890907,0,0.58139,0.407383,-0.097952,0.721472,0.749647,-0.052704,1,1,0
1081,'2026/05/14 12:04:51:905',4,0.713593,0.891078,0,0.582553,0.412354,-0.093329,0.721088,0.749734,-0.051012,1,1,0
1082,'2026/05/14 12:04:51:939',4,0.71167,0.890643,0,0.584117,0.410858,-0.091769,0.71936,0.748485,-0.050809,1,1,0
1083,'2026/05/14 12:04:51:972',4,0.711582,0.891469,0,0.583184,0.412142,-0.092371,0.718956,0.749372,-0.051639,1,1,0
1084,'2026/05/14 12:04:51:999',4,0.709984,0.892055,0,0.581215,0.415924,-0.094233,0.717081,0.747918,-0.050772,1,1,0
1085,'2026/05/14 12:04:52:035',4,0.70978,0.891892,0,0.580464,0.414671,-0.093676,0.716939,0.74783,-0.051453,1,1,0
1086,'2026/05/14 12:04:52:073',4,0.71086,0.891601,0,0.581404,0.414255,-0.093756,0.716108,0.747427,-0.051342,1,1,0
1087,'2026/05/14 12:04:52:111',4,0.70973,0.893241,0,0.579753,0.411572,-0.089891,0.716174,0.743278,-0.049483,1,1,0
1088,'2026/05/14 12:04:52:141',4,0.709625,0.893405,0,0.580366,0.411497,-0.089615,0.715471,0.742957,-0.04856,1,1,0
1089,'2026/05/14 12:04:52:172',4,0.710507,0.892042,0,0.579916,0.413207,-0.093359,0.715776,0.74522,-0.050842,1,1,0
1090,'2026/05/14 12:04:52:204',4,0.710766,0.892494,0,0.580246,0.41547,-0.090945,0.715662,0.745692,-0.048539,1,1,0
1091,'2026/05/14 12:04:52:240',4,0.709544,0.890746,0,0.581604,0.416707,-0.0926,0.71595,0.747163,-0.050942,1,1,0
1092,'2026/05/14 12:04:52:267',4,0.710955,0.890133,0,0.583496,0.414659,-0.093882,0.716842,0.747485,-0.051999,1,1,0
1093,'2026/05/14 12:04:52:300',4,0.711531,0.890655,0,0.581031,0.411156,-0.093706,0.716181,0.746758,-0.050916,1,1,0
1094,'2026/05/14 12:04:52:331',4,0.711567,0.889773,0,0.581978,0.413798,-0.092877,0.715268,0.748596,-0.050435,1,1,0
1095,'2026/05/14 12:04:52:363',4,0.711014,0.888552,0,0.581823,0.412868,-0.092799,0.716887,0.746984,-0.050941,1,1,0
1096,'2026/05/14 12:04:52:395',4,0.710326,0.888634,0,0.583698,0.415846,-0.092661,0.716509,0.746681,-0.051565,1,1,0
1097,'2026/05/14 12:04:52:436',4,0.710946,0.889607,0,0.582777,0.415705,-0.091714,0.715415,0.746404,-0.049944,1,1,0
1098,'2026/05/14 12:04:52:469',4,0.71233,0.889857,0,0.581906,0.412336,-0.091739,0.714117,0.746023,-0.049257,1,1,0
1099,'2026/05/14 12:04:52:507',4,0.711248,0.890561,0,0.582854,0.418127,-0.089622,0.714254,0.74695,-0.047522,1,1,0
1100,'2026/05/14 12:04:52:539',4,0.71133,0.888626,0,0.582113,0.415722,-0.092654,0.71475,0.745634,-0.049833,1,1,0
1101,'2026/05/14 12:04:52:581',4,0.711351,0.889935,0,0.581548,0.415394,-0.091507,0.714946,0.74785,-0.049526,1,1,0
1102,'2026/05/14 12:04:52:621',4,0.711731,0.889481,0,0.582141,0.414558,-0.094212,0.71544,0.748144,-0.050497,1,1,0
1103,'2026/05/14 12:04:52:649',4,0.711198,0.888839,0,0.581151,0.414096,-0.093497,0.714809,0.746606,-0.049402,1,1,0
1104,'2026/05/14 12:04:52:688',4,0.711668,0.890548,0,0.582353,0.415366,-0.09204,0.714267,0.748729,-0.049541,1,1,0
1105,'2026/05/14 12:04:52:719',4,0.711643,0.890877,0,0.581827,0.417028,-0.088792,0.714726,0.745867,-0.04736,1,1,0
1106,'2026/05/14 12:04:52:743',4,0.712448,0.889757,0,0.583728,0.416835,-0.091,0.714926,0.746343,-0.050534,1,1,0
1107,'2026/05/14 12:04:52:776',4,0.712908,0.889232,0,0.5824,0.414748,-0.094337,0.716936,0.747972,-0.050735,1,1,0
1108,'2026/05/14 12:04:52:807',4,0.715346,0.888905,0,0.583608,0.414623,-0.091878,0.717107,0.745482,-0.051185,1,1,0
1109,'2026/05/14 12:04:52:838',4,0.715808,0.887827,0,0.584258,0.416885,-0.092805,0.718374,0.746917,-0.052735,1,1,0
1110,'2026/05/14 12:04:52:870',4,0.71558,0.887414,0,0.585836,0.415402,-0.092719,0.716917,0.74707,-0.053006,1,1,0
1111,'2026/05/14 12:04:52:923',4,0.714495,0.886293,0,0.584438,0.417161,-0.092006,0.717324,0.745982,-0.053158,1,1,0
1112,'2026/05/14 12:04:52:953',4,0.712986,0.888669,0,0.584613,0.416387,-0.092395,0.716483,0.74729,-0.050587,1,1,0
1113,'2026/05/14 12:04:52:980',4,0.71145,0.891059,0,0.583412,0.416224,-0.088688,0.712117,0.743515,-0.049056,1,1,0
1114,'2026/05/14 12:04:53:012',4,0.710627,0.890574,0,0.58307,0.421422,-0.089179,0.710858,0.745119,-0.047781,1,1,0
1115,'2026/05/14 12:04:53:043',4,0.70891,0.893109,0,0.580396,0.418281,-0.088954,0.707252,0.745086,-0.049818,1,1,0
1116,'2026/05/14 12:04:53:076',4,0.706424,0.894538,0,0.579516,0.418733,-0.086349,0.703207,0.744462,-0.049201,1,1,0
1117,'2026/05/14 12:04:53:104',4,0.706754,0.891084,0,0.574828,0.420649,-0.089533,0.703162,0.74971,-0.051112,1,1,0
1118,'2026/05/14 12:04:53:136',4,0.702869,0.895648,0,0.575208,0.420078,-0.087386,0.699808,0.744254,-0.049003,1,1,0
1119,'2026/05/14 12:04:53:168',4,0.70342,0.895234,0,0.572738,0.422842,-0.088644,0.699782,0.744518,-0.050239,1,1,0
1120,'2026/05/14 12:04:53:200',4,0.702695,0.896369,0,0.57168,0.421667,-0.085272,0.698799,0.743227,-0.046981,1,1,0
1121,'2026/05/14 12:04:53:236',4,0.700934,0.896339,0,0.574847,0.421824,-0.079973,0.697035,0.74228,-0.044512,1,1,0
1122,'2026/05/14 12:04:53:269',4,0.702478,0.894218,0,0.573749,0.421745,-0.084683,0.699669,0.743029,-0.04853,1,1,0
1123,'2026/05/14 12:04:53:300',4,0.704126,0.892787,0,0.575002,0.422297,-0.086092,0.700142,0.742585,-0.048188,1,1,0
1124,'2026/05/14 12:04:53:332',4,0.706091,0.890006,0,0.574046,0.422026,-0.086596,0.701324,0.744749,-0.04947,1,1,0
1125,'2026/05/14 12:04:53:370',4,0.707053,0.889247,0,0.575181,0.420231,-0.088064,0.701464,0.744392,-0.050401,1,1,0
1126,'2026/05/14 12:04:53:401',4,0.705649,0.889313,0,0.57495,0.416385,-0.086537,0.701396,0.743459,-0.049773,1,1,0
1127,'2026/05/14 12:04:53:432',4,0.706608,0.888654,0,0.574819,0.414654,-0.087829,0.702057,0.74491,-0.049701,1,1,0
1128,'2026/05/14 12:04:53:463',4,0.704522,0.893273,0,0.575888,0.417243,-0.084062,0.701782,0.74285,-0.047455,1,1,0
1129,'2026/05/14 12:04:53:504',4,0.703118,0.894093,0,0.578567,0.419375,-0.085976,0.697638,0.739664,-0.049338,1,1,0
1130,'2026/05/14 12:04:53:547',4,0.70214,0.894692,0,0.574405,0.417955,-0.08592,0.696589,0.742126,-0.051105,1,1,0
1131,'2026/05/14 12:04:53:574',4,0.699762,0.89568,0,0.571368,0.419284,-0.081597,0.695823,0.744179,-0.04739,1,1,0
1132,'2026/05/14 12:04:53:605',4,0.69852,0.89704,0,0.569996,0.422243,-0.082934,0.694123,0.744453,-0.046025,1,1,0
1133,'2026/05/14 12:04:53:636',4,0.697301,0.894937,0,0.569296,0.420136,-0.083902,0.695443,0.743088,-0.047802,1,1,0
1134,'2026/05/14 12:04:53:667',4,0.69751,0.896968,0,0.570052,0.420919,-0.08226,0.692918,0.742891,-0.046536,1,1,0
1135,'2026/05/14 12:04:53:701',4,0.696433,0.896281,0,0.57152,0.420869,-0.080806,0.692301,0.742965,-0.045479,1,1,0
1136,'2026/05/14 12:04:53:733',4,0.696808,0.895543,0,0.571532,0.421428,-0.081146,0.691133,0.741095,-0.043994,1,1,0
1137,'2026/05/14 12:04:53:774',4,0.695603,0.897337,0,0.5696,0.419327,-0.080501,0.692545,0.74382,-0.044753,1,1,0
1138,'2026/05/14 12:04:53:809',4,0.694526,0.897809,0,0.569764,0.42036,-0.078271,0.69015,0.743897,-0.042905,1,1,0
1139,'2026/05/14 12:04:53:839',4,0.695151,0.899872,0,0.568615,0.42272,-0.078808,0.692903,0.744432,-0.042897,1,1,0
1140,'2026/05/14 12:04:53:869',4,0.695009,0.893037,0,0.567428,0.418585,-0.082651,0.693302,0.744268,-0.045804,1,1,0
1141,'2026/05/14 12:04:53:901',4,0.692902,0.89634,0,0.567137,0.425124,-0.080786,0.692139,0.744459,-0.043194,1,1,0
1142,'2026/05/14 12:04:53:931',4,0.691307,0.897566,0,0.569248,0.427106,-0.078318,0.690639,0.744871,-0.041744,1,1,0
1143,'2026/05/14 12:04:53:961',4,0.69359,0.897269,0,0.566682,0.427911,-0.078325,0.691317,0.745141,-0.041269,1,1,0
1144,'2026/05/14 12:04:53:993',4,0.693295,0.895551,0,0.566967,0.424335,-0.082631,0.690471,0.746125,-0.046502,1,1,0
1145,'2026/05/14 12:04:54:048',4,0.692096,0.898514,0,0.567558,0.428537,-0.079163,0.691866,0.744346,-0.043621,1,1,0
1146,'2026/05/14 12:04:54:073',4,0.69068,0.898555,0,0.567289,0.423459,-0.076459,0.689742,0.74383,-0.041792,1,1,0
1147,'2026/05/14 12:04:54:109',4,0.689441,0.899992,0,0.568576,0.423425,-0.075842,0.688778,0.743258,-0.039515,1,1,0
1148,'2026/05/14 12:04:54:138',4,0.689207,0.900241,0,0.568257,0.421845,-0.075028,0.686203,0.744843,-0.039849,1,1,0
1149,'2026/05/14 12:04:54:169',4,0.689413,0.897107,0,0.567101,0.426471,-0.076224,0.687987,0.740743,-0.039976,1,1,0
1150,'2026/05/14 12:04:54:200',4,0.689387,0.899796,0,0.568617,0.421936,-0.076002,0.68736,0.742416,-0.040807,1,1,0
1151,'2026/05/14 12:04:54:238',4,0.690528,0.897603,0,0.567844,0.424068,-0.078717,0.687659,0.74151,-0.041856,1,1,0
1152,'2026/05/14 12:04:54:265',4,0.690214,0.898302,0,0.569707,0.427461,-0.07686,0.688793,0.742053,-0.041143,1,1,0
1153,'2026/05/14 12:04:54:294',4,0.690448,0.899829,0,0.569337,0.42694,-0.076117,0.689102,0.743505,-0.040682,1,1,0
1154,'2026/05/14 12:04:54:325',4,0.691274,0.897031,0,0.568839,0.426229,-0.078747,0.689797,0.741778,-0.042063,1,1,0
1155,'2026/05/14 12:04:54:357',4,0.692182,0.894867,0,0.567733,0.423343,-0.081697,0.689066,0.741366,-0.045073,1,1,0
1156,'2026/05/14 12:04:54:388',4,0.692394,0.897687,0,0.569789,0.427322,-0.076989,0.690824,0.744034,-0.041526,1,1,0
1157,'2026/05/14 12:04:54:437',4,0.692566,0.895998,0,0.568448,0.426862,-0.079805,0.689196,0.742454,-0.043114,1,1,0
1158,'2026/05/14 12:04:54:468',4,0.690413,0.896694,0,0.569199,0.426888,-0.077785,0.689118,0.743152,-0.04022,1,1,0
1159,'2026/05/14 12:04:54:500',4,0.693881,0.894161,0,0.566635,0.423465,-0.086465,0.691106,0.741917,-0.045948,1,1,0
1160,'2026/05/14 12:04:54:532',4,0.694456,0.892114,0,0.568066,0.421235,-0.085783,0.68957,0.742803,-0.048767,1,1,0
1161,'2026/05/14 12:04:54:563',4,0.694541,0.892429,0,0.568534,0.424672,-0.081915,0.690539,0.743722,-0.045914,1,1,0
1162,'2026/05/14 12:04:54:596',4,0.695584,0.893266,0,0.569872,0.427446,-0.079041,0.690992,0.743852,-0.043417,1,1,0
1163,'2026/05/14 12:04:54:627',4,0.696148,0.889227,0,0.568202,0.421625,-0.088963,0.690952,0.74462,-0.052788,1,1,0
1164,'2026/05/14 12:04:54:660',4,0.696621,0.889367,0,0.568735,0.420596,-0.087157,0.690684,0.743705,-0.051877,1,1,0
1165,'2026/05/14 12:04:54:693',4,0.695529,0.889503,0,0.569705,0.421861,-0.089377,0.690813,0.745693,-0.05214,1,1,0
1166,'2026/05/14 12:04:54:722',4,0.696442,0.888462,0,0.568702,0.422024,-0.089143,0.692713,0.742885,-0.052191,1,1,0
1167,'2026/05/14 12:04:54:755',4,0.697148,0.8906,0,0.568492,0.422174,-0.085053,0.692609,0.743221,-0.04873,1,1,0
1168,'2026/05/14 12:04:54:787',4,0.695932,0.890984,0,0.568139,0.421492,-0.087608,0.692203,0.743183,-0.049754,1,1,0
1169,'2026/05/14 12:04:54:837',4,0.697772,0.887767,0,0.568675,0.422301,-0.090111,0.692767,0.744849,-0.05507,1,1,0
1170,'2026/05/14 12:04:54:868',4,0.698275,0.886194,0,0.568912,0.420357,-0.093143,0.692916,0.744417,-0.055954,1,1,0
1171,'2026/05/14 12:04:54:900',4,0.696552,0.888748,0,0.569119,0.42206,-0.091044,0.692925,0.74444,-0.052779,1,1,0
1172,'2026/05/14 12:04:54:932',4,0.697483,0.891398,0,0.568076,0.420423,-0.088648,0.69325,0.744857,-0.050235,1,1,0
1173,'2026/05/14 12:04:54:964',4,0.698016,0.888689,0,0.569375,0.423188,-0.089949,0.69317,0.744045,-0.054074,1,1,0
1174,'2026/05/14 12:04:54:995',4,0.697371,0.890689,0,0.56935,0.422358,-0.088639,0.693086,0.743461,-0.054224,1,1,0
1175,'2026/05/14 12:04:55:026',4,0.69641,0.890472,0,0.568961,0.422695,-0.088414,0.692565,0.746394,-0.052235,1,1,0
1176,'2026/05/14 12:04:55:059',4,0.697342,0.889027,0,0.569385,0.422579,-0.091578,0.693422,0.743717,-0.05388,1,1,0
1177,'2026/05/14 12:04:55:091',4,0.69736,0.891039,0,0.569608,0.42115,-0.09012,0.693103,0.74412,-0.053489,1,1,0
1178,'2026/05/14 12:04:55:140',4,0.697988,0.891615,0,0.569667,0.422411,-0.087939,0.693435,0.745105,-0.052588,1,1,0
1179,'2026/05/14 12:04:55:162',4,0.697866,0.890437,0,0.569364,0.421558,-0.08707,0.693821,0.743662,-0.051947,1,1,0
1180,'2026/05/14 12:04:55:193',4,0.698254,0.888725,0,0.570645,0.420938,-0.087973,0.693134,0.743204,-0.054115,1,1,0
1181,'2026/05/14 12:04:55:236',4,0.698019,0.89014,0,0.573402,0.421624,-0.086689,0.691628,0.742867,-0.052636,1,1,0
1182,'2026/05/14 12:04:55:273',4,0.69684,0.890562,0,0.573114,0.422444,-0.088527,0.694718,0.741834,-0.05231,1,1,0
1183,'2026/05/14 12:04:55:318',4,0.697559,0.890072,0,0.574544,0.422241,-0.08872,0.69439,0.742444,-0.052568,1,1,0
1184,'2026/05/14 12:04:55:355',4,0.698161,0.891249,0,0.577192,0.420508,-0.084416,0.693939,0.743155,-0.051867,1,1,0
1185,'2026/05/14 12:04:55:386',4,0.698912,0.888732,0,0.576101,0.422114,-0.087198,0.694862,0.742555,-0.054768,1,1,0
1186,'2026/05/14 12:04:55:425',4,0.699584,0.889027,0,0.575554,0.419616,-0.087973,0.696011,0.742081,-0.051373,1,1,0
1187,'2026/05/14 12:04:55:450',4,0.69996,0.888398,0,0.575689,0.420503,-0.090012,0.69595,0.744083,-0.052789,1,1,0
1188,'2026/05/14 12:04:55:481',4,0.701462,0.887278,0,0.576154,0.421881,-0.089871,0.697427,0.742284,-0.054584,1,1,0
1189,'2026/05/14 12:04:55:512',4,0.702276,0.886404,0,0.576955,0.421438,-0.08893,0.698968,0.741337,-0.052543,1,1,0
1190,'2026/05/14 12:04:55:543',4,0.701955,0.88807,0,0.579405,0.420184,-0.087984,0.69853,0.743318,-0.050791,1,1,0
1191,'2026/05/14 12:04:55:587',4,0.705095,0.886837,0,0.580587,0.420167,-0.088063,0.701597,0.742387,-0.053295,1,1,0
1192,'2026/05/14 12:04:55:625',4,0.705154,0.88959,0,0.581765,0.417761,-0.086233,0.703478,0.742829,-0.048211,1,1,0
1193,'2026/05/14 12:04:55:653',4,0.70812,0.884872,0,0.584809,0.42089,-0.090351,0.707712,0.741427,-0.051767,1,1,0
1194,'2026/05/14 12:04:55:686',4,0.710145,0.888886,0,0.587915,0.419544,-0.082304,0.711529,0.738501,-0.045071,1,1,0
1195,'2026/05/14 12:04:55:715',4,0.712786,0.885899,0,0.590717,0.420312,-0.08175,0.712336,0.738724,-0.047498,1,1,0
1196,'2026/05/14 12:04:55:747',4,0.713276,0.885945,0,0.592834,0.422862,-0.082983,0.715318,0.739577,-0.047189,1,1,0
1197,'2026/05/14 12:04:55:777',4,0.711859,0.889315,0,0.593152,0.423156,-0.077328,0.714756,0.73831,-0.041142,1,1,0
1198,'2026/05/14 12:04:55:810',4,0.712184,0.885615,0,0.590607,0.422337,-0.082419,0.713206,0.736965,-0.046135,1,1,0
1199,'2026/05/14 12:04:55:842',4,0.710205,0.887619,0,0.589319,0.424732,-0.078549,0.712603,0.736208,-0.041925,1,1,0
1200,'2026/05/14 12:04:55:874',4,0.710187,0.886521,0,0.588735,0.422762,-0.076614,0.708703,0.736516,-0.043962,1,1,0
1201,'2026/05/14 12:04:55:908',4,0.709324,0.884697,0,0.586909,0.423258,-0.083647,0.708001,0.738074,-0.048783,1,1,0
1202,'2026/05/14 12:04:55:937',4,0.709373,0.887375,0,0.587678,0.424966,-0.074788,0.710268,0.73768,-0.042046,1,1,0
1203,'2026/05/14 12:04:55:996',4,0.708914,0.885585,0,0.586778,0.424124,-0.081452,0.708691,0.737934,-0.04671,1,1,0
1204,'2026/05/14 12:04:56:033',4,0.710212,0.88865,0,0.587649,0.42521,-0.078171,0.710777,0.737885,-0.042475,1,1,0
1205,'2026/05/14 12:04:56:064',4,0.70872,0.886978,0,0.587776,0.424446,-0.077178,0.709162,0.73703,-0.043154,1,1,0
1206,'2026/05/14 12:04:56:094',4,0.710213,0.885132,0,0.586549,0.422687,-0.079751,0.708432,0.738216,-0.046515,1,1,0
1207,'2026/05/14 12:04:56:127',4,0.709352,0.885305,0,0.585946,0.422945,-0.08418,0.708257,0.737851,-0.05005,1,1,0
1208,'2026/05/14 12:04:56:171',4,0.708777,0.886628,0,0.586611,0.425321,-0.083394,0.708223,0.739545,-0.045881,1,1,0
1209,'2026/05/14 12:04:56:208',4,0.709589,0.88618,0,0.586909,0.42485,-0.076872,0.708885,0.737893,-0.043389,1,1,0
1210,'2026/05/14 12:04:56:236',4,0.707827,0.885803,0,0.586143,0.423842,-0.080032,0.707246,0.738361,-0.045045,1,1,0
1211,'2026/05/14 12:04:56:273',4,0.708737,0.888135,0,0.586835,0.424701,-0.076698,0.707077,0.737793,-0.043159,1,1,0
1212,'2026/05/14 12:04:56:300',4,0.708379,0.886482,0,0.586001,0.423954,-0.079161,0.707405,0.737948,-0.045761,1,1,0
1213,'2026/05/14 12:04:56:330',4,0.708205,0.889918,0,0.587582,0.427622,-0.077359,0.708748,0.736909,-0.042433,1,1,0
1214,'2026/05/14 12:04:56:363',4,0.708417,0.890368,0,0.587488,0.4266,-0.07538,0.708522,0.737616,-0.040535,1,1,0
1215,'2026/05/14 12:04:56:394',4,0.708774,0.886976,0,0.587147,0.424714,-0.07949,0.707153,0.738314,-0.045793,1,1,0
1216,'2026/05/14 12:04:56:425',4,0.70861,0.885327,0,0.585923,0.423732,-0.081088,0.70823,0.738799,-0.047086,1,1,0
1217,'2026/05/14 12:04:56:455',4,0.708116,0.886642,0,0.587496,0.426224,-0.078186,0.706936,0.737322,-0.043091,1,1,0
1218,'2026/05/14 12:04:56:487',4,0.709297,0.886635,0,0.586477,0.42556,-0.079799,0.706132,0.737868,-0.046437,1,1,0
1219,'2026/05/14 12:04:56:519',4,0.708672,0.8882,0,0.586861,0.427425,-0.07933,0.708225,0.737191,-0.04309,1,1,0
1220,'2026/05/14 12:04:56:552',4,0.708887,0.888166,0,0.588674,0.426235,-0.077812,0.708998,0.73804,-0.043701,1,1,0
1221,'2026/05/14 12:04:56:581',4,0.708515,0.886816,0,0.587066,0.42617,-0.083264,0.708655,0.738327,-0.04593,1,1,0
1222,'2026/05/14 12:04:56:613',4,0.70929,0.885705,0,0.587084,0.424149,-0.082329,0.709146,0.738882,-0.046634,1,1,0
1223,'2026/05/14 12:04:56:646',4,0.710672,0.885649,0,0.588343,0.42731,-0.085582,0.709686,0.738534,-0.049733,1,1,0
1224,'2026/05/14 12:04:56:677',4,0.710419,0.886589,0,0.587462,0.425288,-0.081522,0.710773,0.737711,-0.043894,1,1,0
1225,'2026/05/14 12:04:56:708',4,0.710632,0.886486,0,0.588554,0.425405,-0.078934,0.710409,0.738206,-0.042764,1,1,0
1226,'2026/05/14 12:04:56:740',4,0.71016,0.884527,0,0.586987,0.42509,-0.082468,0.709436,0.738606,-0.04765,1,1,0
1227,'2026/05/14 12:04:56:772',4,0.710853,0.884626,0,0.587666,0.425027,-0.079566,0.708019,0.738114,-0.047377,1,1,0
1228,'2026/05/14 12:04:56:803',4,0.710703,0.887233,0,0.58786,0.426549,-0.081992,0.710334,0.737677,-0.046062,1,1,0
1229,'2026/05/14 12:04:56:837',4,0.708587,0.884416,0,0.588425,0.425636,-0.084516,0.709564,0.739227,-0.048985,1,1,0
1230,'2026/05/14 12:04:56:868',4,0.710268,0.885997,0,0.587421,0.425252,-0.079333,0.709133,0.737772,-0.045791,1,1,0
1231,'2026/05/14 12:04:56:900',4,0.710117,0.883615,0,0.58818,0.426647,-0.085394,0.708547,0.739106,-0.050302,1,1,0
1232,'2026/05/14 12:04:56:932',4,0.710614,0.885443,0,0.587478,0.424511,-0.081309,0.708873,0.739331,-0.047368,1,1,0
1233,'2026/05/14 12:04:56:963',4,0.710517,0.886067,0,0.588455,0.425911,-0.083026,0.709419,0.739168,-0.047227,1,1,0
1234,'2026/05/14 12:04:56:995',4,0.709469,0.88615,0,0.587128,0.426626,-0.08126,0.709062,0.737403,-0.04535,1,1,0
1235,'2026/05/14 12:04:57:028',4,0.70932,0.886077,0,0.588721,0.426558,-0.079435,0.709697,0.739216,-0.044848,1,1,0
1236,'2026/05/14 12:04:57:060',4,0.709002,0.885277,0,0.587241,0.424691,-0.082854,0.707762,0.739641,-0.048029,1,1,0
1237,'2026/05/14 12:04:57:093',4,0.709235,0.888996,0,0.587729,0.426719,-0.078358,0.709687,0.737334,-0.041797,1,1,0
1238,'2026/05/14 12:04:57:124',4,0.708663,0.884696,0,0.58626,0.424497,-0.084158,0.708664,0.738338,-0.048105,1,1,0
1239,'2026/05/14 12:04:57:171',4,0.710596,0.885556,0,0.58698,0.422744,-0.082386,0.708883,0.74054,-0.046697,1,1,0
1240,'2026/05/14 12:04:57:200',4,0.710224,0.885589,0,0.587594,0.424298,-0.085757,0.708819,0.740112,-0.048956,1,1,0
1241,'2026/05/14 12:04:57:249',4,0.709178,0.884993,0,0.586837,0.425366,-0.08396,0.708919,0.739655,-0.04696,1,1,0
1242,'2026/05/14 12:04:57:282',4,0.709926,0.885466,0,0.586426,0.423424,-0.084144,0.709141,0.739181,-0.048206,1,1,0
1243,'2026/05/14 12:04:57:311',4,0.709639,0.886469,0,0.58771,0.426237,-0.07814,0.708372,0.739458,-0.044745,1,1,0
1244,'2026/05/14 12:04:57:343',4,0.708219,0.885512,0,0.586917,0.42696,-0.08182,0.708688,0.739323,-0.0439,1,1,0
1245,'2026/05/14 12:04:57:372',4,0.709206,0.885616,0,0.587465,0.427406,-0.085851,0.708355,0.739352,-0.048758,1,1,0
1246,'2026/05/14 12:04:57:404',4,0.709853,0.883875,0,0.585266,0.424092,-0.083873,0.70847,0.740707,-0.050534,1,1,0
1247,'2026/05/14 12:04:57:434',4,0.709135,0.88581,0,0.586962,0.426707,-0.08558,0.70846,0.740419,-0.049703,1,1,0
1248,'2026/05/14 12:04:57:465',4,0.70963,0.888852,0,0.584984,0.424341,-0.082196,0.708094,0.738945,-0.047651,1,1,0
1249,'2026/05/14 12:04:57:498',4,0.70946,0.887598,0,0.587101,0.427742,-0.083108,0.709322,0.738436,-0.046504,1,1,0
1250,'2026/05/14 12:04:57:527',4,0.70948,0.885253,0,0.585303,0.424479,-0.084556,0.709301,0.739199,-0.04917,1,1,0
1251,'2026/05/14 12:04:57:560',4,0.71032,0.885627,0,0.586663,0.427365,-0.082285,0.709135,0.742156,-0.047348,1,1,0
1252,'2026/05/14 12:04:57:590',4,0.710376,0.885595,0,0.587061,0.425291,-0.083365,0.709345,0.741089,-0.047655,1,1,0
1253,'2026/05/14 12:04:57:649',4,0.709601,0.883359,0,0.58502,0.424578,-0.08494,0.709253,0.741479,-0.050036,1,1,0
1254,'2026/05/14 12:04:57:688',4,0.709195,0.888042,0,0.585879,0.426999,-0.080483,0.709243,0.741492,-0.044655,1,1,0
1255,'2026/05/14 12:04:57:718',4,0.710405,0.885028,0,0.585961,0.425872,-0.08419,0.707846,0.740665,-0.048088,1,1,0
1256,'2026/05/14 12:04:57:752',4,0.709266,0.883905,0,0.584843,0.423507,-0.085777,0.707749,0.742717,-0.052044,1,1,0
1257,'2026/05/14 12:04:57:780',4,0.709275,0.884909,0,0.585964,0.425781,-0.087825,0.706791,0.742089,-0.052753,1,1,0
1258,'2026/05/14 12:04:57:812',4,0.707851,0.886575,0,0.584743,0.425726,-0.084143,0.707733,0.739337,-0.046187,1,1,0
1259,'2026/05/14 12:04:57:844',4,0.709218,0.886368,0,0.584631,0.424528,-0.083984,0.70799,0.739769,-0.047942,1,1,0
1260,'2026/05/14 12:04:57:878',4,0.709307,0.885618,0,0.585531,0.425431,-0.084107,0.707693,0.740059,-0.048485,1,1,0
1261,'2026/05/14 12:04:57:906',4,0.710302,0.885938,0,0.585919,0.425153,-0.082281,0.708832,0.739616,-0.047222,1,1,0
1262,'2026/05/14 12:04:57:940',4,0.709418,0.883358,0,0.585381,0.425206,-0.085287,0.707758,0.741954,-0.050285,1,1,0
1263,'2026/05/14 12:05:11:453',5,0.669866,0.87622,-0.000001,0.586777,0.763787,-0.035051,0.713392,0.47147,-0.00439,1,0,1
1264,'2026/05/14 12:05:11:485',5,0.670956,0.876828,-0.000001,0.585642,0.764832,-0.033941,0.71281,0.471346,-0.001391,1,0,1
1265,'2026/05/14 12:05:11:529',5,0.669475,0.874697,-0.000001,0.587193,0.764793,-0.035174,0.712276,0.471902,-0.003348,1,0,1
1266,'2026/05/14 12:05:11:571',5,0.670943,0.877461,-0.000001,0.586527,0.764452,-0.034978,0.71299,0.472255,-0.00232,1,0,1
1267,'2026/05/14 12:05:11:606',5,0.671527,0.876602,-0.000001,0.587576,0.764453,-0.033683,0.712508,0.472723,0.000852,1,0,1
1268,'2026/05/14 12:05:11:635',5,0.670737,0.878217,-0.000001,0.58443,0.760389,-0.03119,0.711646,0.472153,-0.003427,1,0,1
1269,'2026/05/14 12:05:11:667',5,0.670604,0.875574,-0.000001,0.586311,0.764016,-0.035784,0.713543,0.471577,-0.007854,1,0,1
1270,'2026/05/14 12:05:11:697',5,0.6732,0.876871,-0.000001,0.589182,0.76409,-0.032011,0.714402,0.470052,0.00017,1,0,1
1271,'2026/05/14 12:05:11:736',5,0.675152,0.875714,-0.000001,0.594293,0.766345,-0.034373,0.715421,0.468304,-0.001462,1,0,1
1272,'2026/05/14 12:05:11:776',5,0.673984,0.876992,-0.000001,0.589692,0.765602,-0.035191,0.715668,0.46697,-0.00521,1,0,1
1273,'2026/05/14 12:05:11:804',5,0.674718,0.876714,-0.000001,0.591673,0.767502,-0.03647,0.716301,0.46681,-0.003663,1,0,1
1274,'2026/05/14 12:05:11:837',5,0.673941,0.875134,-0.000001,0.590895,0.764249,-0.035698,0.715914,0.46685,-0.002117,1,0,1
1275,'2026/05/14 12:05:11:867',5,0.672697,0.877352,-0.000001,0.58858,0.765415,-0.0369,0.71482,0.464246,-0.004498,1,0,1
1276,'2026/05/14 12:05:11:899',5,0.67085,0.878071,-0.000001,0.585369,0.765102,-0.036085,0.712027,0.463279,-0.007372,1,0,1
1277,'2026/05/14 12:05:11:932',5,0.66933,0.87752,-0.000001,0.583428,0.762794,-0.031087,0.71068,0.463937,-0.006201,1,0,1
1278,'2026/05/14 12:05:11:964',5,0.669344,0.876425,-0.000001,0.584823,0.7616,-0.033687,0.710974,0.464516,-0.011265,1,0,1
1279,'2026/05/14 12:05:11:995',5,0.671707,0.874526,-0.000001,0.589186,0.766335,-0.036526,0.711628,0.46268,-0.002954,1,0,1
1280,'2026/05/14 12:05:12:026',5,0.672457,0.876452,-0.000001,0.586677,0.765414,-0.033358,0.711469,0.467246,-0.001618,1,0,1
1281,'2026/05/14 12:05:12:059',5,0.670265,0.878195,-0.000001,0.585527,0.762556,-0.031062,0.710999,0.465164,-0.006328,1,0,1
1282,'2026/05/14 12:05:12:091',5,0.669032,0.879365,-0.000001,0.584899,0.766905,-0.034941,0.711384,0.464133,-0.007102,1,0,1
1283,'2026/05/14 12:05:12:123',5,0.668934,0.879942,-0.000001,0.58454,0.765583,-0.03515,0.711505,0.464212,-0.006067,1,0,1
1284,'2026/05/14 12:05:12:155',5,0.667824,0.879,-0.000001,0.582297,0.761824,-0.029339,0.708668,0.468444,-0.006894,1,0,1
1285,'2026/05/14 12:05:12:185',5,0.667414,0.878888,-0.000001,0.582228,0.763267,-0.025052,0.707896,0.468066,-0.002945,1,0,1
1286,'2026/05/14 12:05:12:218',5,0.668434,0.877891,-0.000001,0.58149,0.764872,-0.026167,0.706298,0.465989,-0.004784,1,0,1
1287,'2026/05/14 12:05:12:252',5,0.670191,0.878832,-0.000001,0.583009,0.767041,-0.035413,0.707552,0.463146,-0.005996,1,0,1
1288,'2026/05/14 12:05:12:283',5,0.671156,0.879243,-0.000001,0.585587,0.765267,-0.034357,0.709015,0.463314,-0.005731,1,0,1
1289,'2026/05/14 12:05:12:314',5,0.669824,0.879318,-0.000001,0.586053,0.76819,-0.037469,0.709234,0.461323,-0.008587,1,0,1
1290,'2026/05/14 12:05:12:345',5,0.671406,0.877023,-0.000001,0.586484,0.765762,-0.036412,0.70863,0.464441,-0.006286,1,0,1
1291,'2026/05/14 12:05:12:377',5,0.671505,0.877751,-0.000001,0.588295,0.767958,-0.037423,0.709684,0.460937,-0.00677,1,0,1
1292,'2026/05/14 12:05:12:406',5,0.670525,0.877906,-0.000001,0.587671,0.769679,-0.041308,0.708835,0.460595,-0.008535,1,0,1
1293,'2026/05/14 12:05:12:439',5,0.671346,0.878962,-0.000001,0.588313,0.768428,-0.037594,0.708521,0.460525,-0.007031,1,0,1
1294,'2026/05/14 12:05:12:469',5,0.670802,0.877707,-0.000001,0.586566,0.768105,-0.037659,0.708192,0.462932,-0.006045,1,0,1
1295,'2026/05/14 12:05:12:501',5,0.671668,0.875132,-0.000001,0.590509,0.768798,-0.036998,0.708198,0.462921,-0.004469,1,0,1
1296,'2026/05/14 12:05:12:533',5,0.672178,0.874782,-0.000001,0.590104,0.768699,-0.038216,0.708738,0.463378,-0.004786,1,0,1
1297,'2026/05/14 12:05:12:566',5,0.672827,0.877017,-0.000001,0.58486,0.764843,-0.033108,0.706304,0.464267,-0.008457,1,0,1
1298,'2026/05/14 12:05:12:597',5,0.674646,0.876851,-0.000001,0.588217,0.769507,-0.037045,0.708185,0.463589,-0.006011,1,0,1
1299,'2026/05/14 12:05:12:629',5,0.673927,0.877807,-0.000001,0.584242,0.767691,-0.034676,0.7073,0.461102,-0.004232,1,0,1
1300,'2026/05/14 12:05:12:660',5,0.673609,0.87603,-0.000001,0.58739,0.768438,-0.038477,0.708314,0.46228,-0.006573,1,0,1
1301,'2026/05/14 12:05:12:693',5,0.673693,0.876452,-0.000001,0.586446,0.765074,-0.031519,0.708892,0.462365,-0.007631,1,0,1
1302,'2026/05/14 12:05:12:724',5,0.675114,0.876128,-0.000001,0.587641,0.766815,-0.034829,0.707701,0.46087,-0.006855,1,0,1
1303,'2026/05/14 12:05:12:756',5,0.674643,0.875686,-0.000001,0.589626,0.768007,-0.03639,0.708971,0.459527,-0.007899,1,0,1
1304,'2026/05/14 12:05:12:788',5,0.675113,0.878479,-0.000001,0.591711,0.770299,-0.040526,0.711199,0.459183,-0.008948,1,0,1
1305,'2026/05/14 12:05:12:840',5,0.676072,0.880059,-0.000001,0.586938,0.770156,-0.041278,0.71282,0.461228,-0.008422,1,0,1
1306,'2026/05/14 12:05:12:880',5,0.676254,0.878056,-0.000001,0.588957,0.769589,-0.045109,0.711705,0.461506,-0.010946,1,0,1
1307,'2026/05/14 12:05:12:909',5,0.675535,0.879445,-0.000001,0.590662,0.768861,-0.040068,0.712651,0.460113,-0.006471,1,0,1
1308,'2026/05/14 12:05:12:957',5,0.675759,0.879018,-0.000001,0.589338,0.769948,-0.039643,0.713004,0.459488,-0.007912,1,0,1
1309,'2026/05/14 12:05:12:989',5,0.676976,0.878653,-0.000001,0.588686,0.771497,-0.042636,0.712373,0.460671,-0.01038,1,0,1
1310,'2026/05/14 12:05:13:032',5,0.676604,0.879249,-0.000001,0.589207,0.7704,-0.042955,0.712791,0.462796,-0.009675,1,0,1
1311,'2026/05/14 12:05:13:066',5,0.676641,0.88029,-0.000001,0.589853,0.770955,-0.042026,0.712744,0.461465,-0.008744,1,0,1
1312,'2026/05/14 12:05:13:098',5,0.675631,0.877311,-0.000001,0.590714,0.768056,-0.041174,0.713011,0.460667,-0.008849,1,0,1
1313,'2026/05/14 12:05:13:130',5,0.676975,0.878783,-0.000001,0.591104,0.770858,-0.043382,0.712104,0.460116,-0.008533,1,0,1
1314,'2026/05/14 12:05:13:164',5,0.677703,0.877901,-0.000001,0.594102,0.771538,-0.04233,0.711855,0.460589,-0.009306,1,0,1
1315,'2026/05/14 12:05:13:192',5,0.67587,0.877704,-0.000001,0.590973,0.771088,-0.04695,0.71173,0.46166,-0.01339,1,0,1
1316,'2026/05/14 12:05:13:224',5,0.676449,0.877746,-0.000001,0.592843,0.770309,-0.040279,0.711923,0.459599,-0.007159,1,0,1
1317,'2026/05/14 12:05:13:257',5,0.676003,0.879439,-0.000001,0.588387,0.770225,-0.040528,0.711717,0.460451,-0.00707,1,0,1
1318,'2026/05/14 12:05:13:288',5,0.675504,0.878208,-0.000001,0.590624,0.770549,-0.042197,0.711106,0.460641,-0.009936,1,0,1
1319,'2026/05/14 12:05:13:320',5,0.677202,0.8763,-0.000001,0.592815,0.768749,-0.041471,0.710207,0.460766,-0.010308,1,0,1
1320,'2026/05/14 12:05:13:353',5,0.675443,0.87854,-0.000001,0.591889,0.77056,-0.039725,0.710091,0.459807,-0.007907,1,0,1
1321,'2026/05/14 12:05:13:384',5,0.675954,0.878499,-0.000001,0.591447,0.772353,-0.041586,0.709324,0.459452,-0.007593,1,0,1
1322,'2026/05/14 12:05:13:415',5,0.675211,0.878057,-0.000001,0.592145,0.77003,-0.041927,0.709334,0.459673,-0.011397,1,0,1
1323,'2026/05/14 12:05:13:447',5,0.674268,0.877996,-0.000001,0.587482,0.770497,-0.041646,0.710705,0.457984,-0.010061,1,0,1
1324,'2026/05/14 12:05:13:479',5,0.67596,0.879764,-0.000001,0.591216,0.771162,-0.040068,0.709305,0.458077,-0.00938,1,0,1
1325,'2026/05/14 12:05:13:512',5,0.675482,0.879851,-0.000001,0.592276,0.771025,-0.041642,0.711319,0.458363,-0.01057,1,0,1
1326,'2026/05/14 12:05:13:544',5,0.674257,0.878998,-0.000001,0.591876,0.770361,-0.042641,0.710325,0.458428,-0.012948,1,0,1
1327,'2026/05/14 12:05:13:573',5,0.673974,0.876855,-0.000001,0.588084,0.770245,-0.038815,0.708047,0.456572,-0.012933,1,0,1
1328,'2026/05/14 12:05:13:604',5,0.675311,0.880352,-0.000001,0.588955,0.770098,-0.0427,0.708791,0.456026,-0.00985,1,0,1
1329,'2026/05/14 12:05:13:637',5,0.674188,0.876559,-0.000001,0.588786,0.76883,-0.040865,0.707417,0.457209,-0.012139,1,0,1
1330,'2026/05/14 12:05:13:669',5,0.674417,0.879492,-0.000001,0.588512,0.769815,-0.038896,0.706171,0.455341,-0.010675,1,0,1
1331,'2026/05/14 12:05:13:701',5,0.673375,0.874875,-0.000001,0.589328,0.767993,-0.0402,0.70689,0.457069,-0.01149,1,0,1
1332,'2026/05/14 12:05:13:733',5,0.674343,0.874717,-0.000001,0.587042,0.769401,-0.03988,0.70719,0.456143,-0.011259,1,0,1
1333,'2026/05/14 12:05:13:763',5,0.675071,0.876906,-0.000001,0.59119,0.771379,-0.042849,0.708141,0.456185,-0.010312,1,0,1
1334,'2026/05/14 12:05:13:795',5,0.674099,0.878287,-0.000001,0.588394,0.771334,-0.044473,0.708253,0.454803,-0.012271,1,0,1
1335,'2026/05/14 12:05:13:828',5,0.674417,0.880422,-0.000001,0.59001,0.771372,-0.041028,0.708896,0.456659,-0.013128,1,0,1
1336,'2026/05/14 12:05:13:861',5,0.674539,0.879706,-0.000001,0.589156,0.769927,-0.039104,0.709953,0.455833,-0.008427,1,0,1
1337,'2026/05/14 12:05:13:892',5,0.674019,0.879124,-0.000001,0.588936,0.769766,-0.038875,0.710011,0.454929,-0.012265,1,0,1
1338,'2026/05/14 12:05:13:924',5,0.675181,0.877306,-0.000001,0.590178,0.770932,-0.042803,0.708397,0.454386,-0.012969,1,0,1
1339,'2026/05/14 12:05:13:956',5,0.674747,0.879172,-0.000001,0.589454,0.772414,-0.040405,0.709211,0.45428,-0.010129,1,0,1
1340,'2026/05/14 12:05:14:019',5,0.674253,0.879457,-0.000001,0.589308,0.77071,-0.038707,0.710164,0.454085,-0.010696,1,0,1
1341,'2026/05/14 12:05:14:054',5,0.67552,0.878639,-0.000001,0.590377,0.769537,-0.040415,0.710403,0.45531,-0.010131,1,0,1
1342,'2026/05/14 12:05:14:077',5,0.675739,0.879158,-0.000001,0.592274,0.773409,-0.047612,0.709888,0.455131,-0.012862,1,0,1
1343,'2026/05/14 12:05:14:108',5,0.677302,0.877927,-0.000001,0.59177,0.770201,-0.040149,0.708944,0.455651,-0.008615,1,0,1
1344,'2026/05/14 12:05:14:139',5,0.676062,0.879839,-0.000001,0.589309,0.770586,-0.038528,0.710943,0.455707,-0.007427,1,0,1
1345,'2026/05/14 12:05:14:174',5,0.675855,0.882035,-0.000001,0.585841,0.772873,-0.039688,0.709791,0.455619,-0.009013,1,0,1
1346,'2026/05/14 12:05:14:204',5,0.674572,0.881631,-0.000001,0.587351,0.771476,-0.04015,0.710795,0.45512,-0.00984,1,0,1
1347,'2026/05/14 12:05:14:234',5,0.676079,0.879874,-0.000001,0.590608,0.769848,-0.040726,0.71057,0.455962,-0.008955,1,0,1
1348,'2026/05/14 12:05:14:266',5,0.675242,0.878983,-0.000001,0.59062,0.771757,-0.039615,0.709178,0.455137,-0.010841,1,0,1
1349,'2026/05/14 12:05:14:299',5,0.67605,0.880382,-0.000001,0.590738,0.772031,-0.040967,0.70959,0.454885,-0.010596,1,0,1
1350,'2026/05/14 12:05:14:329',5,0.676162,0.880281,-0.000001,0.591798,0.771293,-0.04295,0.709199,0.455907,-0.012845,1,0,1
1351,'2026/05/14 12:05:14:362',5,0.676093,0.879704,-0.000001,0.588192,0.771851,-0.039818,0.711936,0.45712,-0.008319,1,0,1
1352,'2026/05/14 12:05:14:406',5,0.676686,0.881071,-0.000001,0.587272,0.771802,-0.038504,0.710545,0.457508,-0.007132,1,0,1
1353,'2026/05/14 12:05:14:452',5,0.675211,0.881035,-0.000001,0.586691,0.771448,-0.036985,0.710654,0.45574,-0.00561,1,0,1
1354,'2026/05/14 12:05:14:490',5,0.675075,0.881454,-0.000001,0.584785,0.773255,-0.039319,0.709089,0.455761,-0.008945,1,0,1
1355,'2026/05/14 12:05:14:523',5,0.6766,0.881159,-0.000001,0.587392,0.770363,-0.040761,0.710707,0.458304,-0.010373,1,0,1
1356,'2026/05/14 12:05:14:552',5,0.672508,0.881538,-0.000001,0.587471,0.770066,-0.037633,0.709821,0.457162,-0.010037,1,0,1
1357,'2026/05/14 12:05:14:584',5,0.672975,0.880377,-0.000001,0.589167,0.769387,-0.039218,0.710498,0.458205,-0.008675,1,0,1
1358,'2026/05/14 12:05:14:614',5,0.673507,0.881957,-0.000001,0.584991,0.771091,-0.03782,0.712154,0.459201,-0.006689,1,0,1
1359,'2026/05/14 12:05:14:645',5,0.674829,0.881434,-0.000001,0.583988,0.772346,-0.041009,0.713286,0.457714,-0.009792,1,0,1
1360,'2026/05/14 12:05:14:678',5,0.675199,0.881975,-0.000001,0.58608,0.771977,-0.037909,0.714322,0.457946,-0.007703,1,0,1
1361,'2026/05/14 12:05:14:707',5,0.676026,0.880888,-0.000001,0.585994,0.770763,-0.037642,0.713722,0.458922,-0.006964,1,0,1
1362,'2026/05/14 12:05:14:749',5,0.67408,0.883557,-0.000001,0.586009,0.772202,-0.036798,0.711038,0.456985,-0.006757,1,0,1
1363,'2026/05/14 12:05:14:788',5,0.672335,0.884101,-0.000001,0.589228,0.76873,-0.032866,0.709764,0.457176,-0.003798,1,0,1
1364,'2026/05/14 12:05:14:818',5,0.671045,0.883301,-0.000001,0.585216,0.769959,-0.035319,0.71044,0.45617,-0.008254,1,0,1
1365,'2026/05/14 12:05:14:850',5,0.674408,0.882904,-0.000001,0.586065,0.772145,-0.040369,0.710783,0.458559,-0.008344,1,0,1
1366,'2026/05/14 12:05:14:886',5,0.673475,0.882061,-0.000001,0.585213,0.772441,-0.0378,0.710528,0.456386,-0.007796,1,0,1
1367,'2026/05/14 12:05:14:915',5,0.674882,0.881083,-0.000001,0.585846,0.772299,-0.040433,0.712122,0.457666,-0.010799,1,0,1
1368,'2026/05/14 12:05:14:945',5,0.676375,0.881428,-0.000001,0.587687,0.771259,-0.039481,0.711869,0.458184,-0.008082,1,0,1
1369,'2026/05/14 12:05:14:975',5,0.676172,0.880388,-0.000001,0.590781,0.769435,-0.03933,0.710761,0.456687,-0.008579,1,0,1
1370,'2026/05/14 12:05:15:007',5,0.675394,0.879384,-0.000001,0.590739,0.770044,-0.040133,0.71265,0.458162,-0.008205,1,0,1
1371,'2026/05/14 12:05:15:038',5,0.675553,0.881163,-0.000001,0.585701,0.771446,-0.04061,0.713439,0.45916,-0.010438,1,0,1
1372,'2026/05/14 12:05:15:070',5,0.675314,0.881753,-0.000001,0.587181,0.770981,-0.040581,0.71429,0.459842,-0.01025,1,0,1
1373,'2026/05/14 12:05:15:104',5,0.675807,0.878571,-0.000001,0.588789,0.769119,-0.037905,0.717653,0.462005,-0.006333,1,0,1
1374,'2026/05/14 12:05:15:135',5,0.677172,0.880296,-0.000001,0.587928,0.768412,-0.041145,0.718253,0.461148,-0.008078,1,0,1
1375,'2026/05/14 12:05:15:186',5,0.676265,0.87965,-0.000001,0.58933,0.76781,-0.038296,0.720496,0.462329,-0.006685,1,0,1
1376,'2026/05/14 12:05:15:214',5,0.676886,0.875707,-0.000001,0.591762,0.766081,-0.038734,0.722793,0.463477,-0.008537,1,0,1
1377,'2026/05/14 12:05:15:251',5,0.677386,0.8766,-0.000001,0.592499,0.766588,-0.040194,0.723187,0.464564,-0.007327,1,0,1
1378,'2026/05/14 12:05:15:280',5,0.676995,0.875392,-0.000001,0.588694,0.766477,-0.038862,0.722706,0.463118,-0.008721,1,0,1
1379,'2026/05/14 12:05:15:315',5,0.678184,0.876834,-0.000001,0.594035,0.765613,-0.040011,0.724067,0.463797,-0.007018,1,0,1
1380,'2026/05/14 12:05:15:341',5,0.677305,0.877215,-0.000001,0.589233,0.766965,-0.04205,0.721874,0.462613,-0.010225,1,0,1
1381,'2026/05/14 12:05:15:373',5,0.676617,0.877668,-0.000001,0.588844,0.76766,-0.038136,0.722185,0.463248,-0.005755,1,0,1
1382,'2026/05/14 12:05:15:406',5,0.676514,0.877089,-0.000001,0.590772,0.766638,-0.039127,0.722675,0.462847,-0.008635,1,0,1
1383,'2026/05/14 12:05:15:443',5,0.677678,0.875806,-0.000001,0.591984,0.765722,-0.038232,0.723604,0.462559,-0.007932,1,0,1
1384,'2026/05/14 12:05:15:473',5,0.678891,0.877922,-0.000001,0.594844,0.763382,-0.039855,0.726478,0.463962,-0.006686,1,0,1
1385,'2026/05/14 12:05:15:498',5,0.678495,0.877339,-0.000001,0.594904,0.764086,-0.040663,0.72513,0.463466,-0.009425,1,0,1
1386,'2026/05/14 12:05:15:530',5,0.679367,0.876415,-0.000001,0.59615,0.765316,-0.043347,0.725377,0.461524,-0.010051,1,0,1
1387,'2026/05/14 12:05:15:560',5,0.67947,0.878292,-0.000001,0.593247,0.765021,-0.039111,0.725725,0.463134,-0.005283,1,0,1
1388,'2026/05/14 12:05:15:603',5,0.677988,0.876429,-0.000001,0.594925,0.76505,-0.042417,0.726102,0.463505,-0.00842,1,0,1
1389,'2026/05/14 12:05:15:640',5,0.678109,0.877578,-0.000001,0.591728,0.763199,-0.040383,0.726022,0.462443,-0.005603,1,0,1
1390,'2026/05/14 12:05:15:671',5,0.677591,0.876261,-0.000001,0.59458,0.762547,-0.041554,0.727689,0.462183,-0.007381,1,0,1
1391,'2026/05/14 12:05:15:704',5,0.676617,0.875039,-0.000001,0.597414,0.761199,-0.041348,0.728514,0.461987,-0.00972,1,0,1
1392,'2026/05/14 12:05:15:739',5,0.678478,0.877285,-0.000001,0.593505,0.761322,-0.039123,0.730541,0.462579,-0.007359,1,0,1
1393,'2026/05/14 12:05:15:766',5,0.679409,0.877414,-0.000001,0.595527,0.762073,-0.04077,0.732749,0.464377,-0.006427,1,0,1
1394,'2026/05/14 12:05:15:798',5,0.680009,0.877228,-0.000001,0.599835,0.757946,-0.03758,0.734693,0.464164,-0.00254,1,0,1
1395,'2026/05/14 12:05:15:830',5,0.679519,0.876678,-0.000001,0.599269,0.75966,-0.03917,0.734357,0.463625,-0.005621,1,0,1
1396,'2026/05/14 12:05:15:861',5,0.67867,0.877253,-0.000001,0.5981,0.759591,-0.037982,0.734076,0.463495,-0.005597,1,0,1
1397,'2026/05/14 12:05:15:892',5,0.678658,0.875394,-0.000001,0.596948,0.761484,-0.041096,0.7334,0.463404,-0.007753,1,0,1
1398,'2026/05/14 12:05:15:925',5,0.679751,0.876752,-0.000001,0.596101,0.761,-0.040226,0.73261,0.463828,-0.005678,1,0,1
1399,'2026/05/14 12:05:15:957',5,0.68036,0.877728,-0.000001,0.594581,0.759098,-0.038946,0.733934,0.462414,-0.006815,1,0,1
1400,'2026/05/14 12:05:16:003',5,0.681133,0.877747,-0.000001,0.59461,0.759622,-0.041764,0.733955,0.462482,-0.005864,1,0,1
1401,'2026/05/14 12:05:16:039',5,0.680867,0.878198,-0.000001,0.596821,0.760129,-0.039527,0.734662,0.463977,-0.001578,1,0,1
1402,'2026/05/14 12:05:16:069',5,0.680278,0.876011,-0.000001,0.598286,0.761293,-0.042912,0.734148,0.463045,-0.006753,1,0,1
1403,'2026/05/14 12:05:16:100',5,0.681133,0.878212,-0.000001,0.598848,0.760113,-0.038525,0.734231,0.464562,-0.0023,1,0,1
1404,'2026/05/14 12:05:16:140',5,0.680377,0.877047,-0.000001,0.59672,0.759189,-0.035984,0.735057,0.464388,-0.002556,1,0,1
1405,'2026/05/14 12:05:16:180',5,0.679165,0.876157,-0.000001,0.597909,0.760528,-0.037569,0.734482,0.46341,-0.00482,1,0,1
1406,'2026/05/14 12:05:16:208',5,0.680337,0.878218,-0.000001,0.596054,0.760876,-0.035948,0.734032,0.462679,-0.001801,1,0,1
1407,'2026/05/14 12:05:16:240',5,0.680544,0.878497,-0.000001,0.595011,0.762405,-0.036819,0.733333,0.462913,-0.001411,1,0,1
1408,'2026/05/14 12:05:16:274',5,0.679413,0.876232,-0.000001,0.599631,0.759545,-0.040593,0.733539,0.462112,-0.006355,1,0,1
1409,'2026/05/14 12:05:16:303',5,0.680212,0.877502,-0.000001,0.59642,0.759752,-0.040351,0.733281,0.46507,-0.003886,1,0,1
1410,'2026/05/14 12:05:16:335',5,0.681161,0.877954,-0.000001,0.598202,0.761186,-0.038926,0.732528,0.464369,-0.001057,1,0,1
1411,'2026/05/14 12:05:16:365',5,0.680698,0.879039,-0.000001,0.59332,0.76121,-0.038016,0.732272,0.463444,-0.001359,1,0,1
1412,'2026/05/14 12:05:16:405',5,0.680477,0.878081,-0.000001,0.59586,0.761936,-0.039478,0.731747,0.463533,-0.003253,1,0,1
1413,'2026/05/14 12:05:16:437',5,0.680433,0.877482,-0.000001,0.598035,0.761616,-0.041848,0.731269,0.461953,-0.007389,1,0,1
1414,'2026/05/14 12:05:16:468',5,0.679914,0.878405,-0.000001,0.598094,0.762358,-0.04124,0.731546,0.4627,-0.003316,1,0,1
1415,'2026/05/14 12:05:16:499',5,0.679728,0.878225,-0.000001,0.595489,0.763439,-0.040535,0.731201,0.463452,-0.0058,1,0,1
1416,'2026/05/14 12:05:16:532',5,0.679453,0.877313,-0.000001,0.5981,0.762202,-0.041183,0.730463,0.461471,-0.006617,1,0,1
1417,'2026/05/14 12:05:16:565',5,0.679314,0.877269,-0.000001,0.591359,0.763078,-0.042624,0.730181,0.460948,-0.005789,1,0,1
1418,'2026/05/14 12:05:16:597',5,0.680118,0.876766,-0.000001,0.593196,0.763658,-0.042288,0.730078,0.461603,-0.006956,1,0,1
1419,'2026/05/14 12:05:16:629',5,0.680165,0.876712,-0.000001,0.592581,0.764125,-0.041248,0.730283,0.461686,-0.007836,1,0,1
1420,'2026/05/14 12:05:16:661',5,0.679836,0.876904,-0.000001,0.594615,0.761251,-0.03872,0.730371,0.461634,-0.006061,1,0,1
1421,'2026/05/14 12:05:16:703',5,0.680436,0.876044,-0.000001,0.59598,0.764058,-0.042732,0.73067,0.460048,-0.008574,1,0,1
1422,'2026/05/14 12:05:16:734',5,0.679685,0.875525,-0.000001,0.598229,0.763252,-0.044959,0.730647,0.458987,-0.009989,1,0,1
1423,'2026/05/14 12:05:16:764',5,0.678785,0.875284,-0.000001,0.599999,0.761805,-0.039788,0.730486,0.458764,-0.004754,1,0,1
1424,'2026/05/14 12:05:16:808',5,0.678882,0.873317,-0.000001,0.599047,0.761924,-0.044843,0.731908,0.458628,-0.011827,1,0,1
1425,'2026/05/14 12:05:16:842',5,0.677593,0.875054,-0.000001,0.601144,0.761081,-0.044738,0.73201,0.45842,-0.009823,1,0,1
1426,'2026/05/14 12:05:16:873',5,0.680897,0.878204,-0.000001,0.601356,0.762046,-0.039341,0.732382,0.456078,-0.00469,1,0,1
1427,'2026/05/14 12:05:16:905',5,0.680133,0.873004,-0.000001,0.599686,0.761932,-0.0433,0.732952,0.458235,-0.011547,1,0,1
1428,'2026/05/14 12:05:16:937',5,0.679939,0.875689,-0.000001,0.601692,0.761916,-0.047171,0.732255,0.457989,-0.011789,1,0,1
1429,'2026/05/14 12:05:16:968',5,0.679152,0.875084,-0.000001,0.600671,0.760734,-0.039887,0.731281,0.457158,-0.007123,1,0,1
1430,'2026/05/14 12:05:17:001',5,0.679399,0.877,-0.000001,0.601036,0.764003,-0.043858,0.73088,0.457,-0.009902,1,0,1
1431,'2026/05/14 12:05:17:033',5,0.679289,0.875416,-0.000001,0.599114,0.763047,-0.046441,0.730654,0.458002,-0.011566,1,0,1
1432,'2026/05/14 12:05:17:066',5,0.679207,0.875664,-0.000001,0.599641,0.761963,-0.046385,0.730997,0.456784,-0.011593,1,0,1
1433,'2026/05/14 12:05:17:112',5,0.679438,0.876776,-0.000001,0.600849,0.762362,-0.045037,0.730758,0.457064,-0.011049,1,0,1
1434,'2026/05/14 12:05:17:147',5,0.680303,0.876257,-0.000001,0.60236,0.762501,-0.041529,0.731378,0.456984,-0.007886,1,0,1
1435,'2026/05/14 12:05:17:173',5,0.68079,0.876548,-0.000001,0.602029,0.761933,-0.045067,0.732334,0.45595,-0.008495,1,0,1
1436,'2026/05/14 12:05:17:204',5,0.681731,0.877518,-0.000001,0.604315,0.762733,-0.042672,0.731514,0.456083,-0.005412,1,0,1
1437,'2026/05/14 12:05:17:235',5,0.681886,0.876694,-0.000001,0.603527,0.761685,-0.042387,0.731897,0.456734,-0.006765,1,0,1
1438,'2026/05/14 12:05:17:268',5,0.680925,0.87622,-0.000001,0.603269,0.762858,-0.041766,0.730819,0.456299,-0.008211,1,0,1
1439,'2026/05/14 12:05:17:300',5,0.680413,0.877374,-0.000001,0.601105,0.761819,-0.043023,0.731387,0.456106,-0.003362,1,0,1
1440,'2026/05/14 12:05:17:333',5,0.68046,0.877141,-0.000001,0.602405,0.763517,-0.041622,0.730288,0.456163,-0.005854,1,0,1
1441,'2026/05/14 12:05:17:366',5,0.679125,0.875865,-0.000001,0.600237,0.763068,-0.047954,0.730995,0.45515,-0.011467,1,0,1
1442,'2026/05/14 12:05:17:399',5,0.679527,0.876547,-0.000001,0.601585,0.762625,-0.042184,0.731108,0.456636,-0.005549,1,0,1
1443,'2026/05/14 12:05:17:429',5,0.679707,0.875908,-0.000001,0.598933,0.763255,-0.047051,0.730536,0.457839,-0.009756,1,0,1
1444,'2026/05/14 12:05:17:460',5,0.678014,0.874055,-0.000001,0.600113,0.763445,-0.048018,0.730478,0.456623,-0.013627,1,0,1
1445,'2026/05/14 12:05:17:501',5,0.678768,0.873884,-0.000001,0.597572,0.763466,-0.048752,0.730115,0.457121,-0.013971,1,0,1
1446,'2026/05/14 12:05:17:558',5,0.678902,0.876758,-0.000001,0.599054,0.764327,-0.043502,0.728566,0.456099,-0.010517,1,0,1
1447,'2026/05/14 12:05:17:586',5,0.677828,0.876555,-0.000001,0.59817,0.763852,-0.048676,0.728864,0.455756,-0.014034,1,0,1
1448,'2026/05/14 12:05:17:617',5,0.677636,0.874133,-0.000001,0.597738,0.763223,-0.045567,0.72842,0.455405,-0.012697,1,0,1
1449,'2026/05/14 12:05:17:647',5,0.678344,0.873319,-0.000001,0.599909,0.763654,-0.048788,0.727551,0.455714,-0.013734,1,0,1
1450,'2026/05/14 12:05:17:677',5,0.679526,0.877665,-0.000001,0.597639,0.762466,-0.048326,0.729082,0.456669,-0.012137,1,0,1
1451,'2026/05/14 12:05:17:710',5,0.678798,0.875648,-0.000001,0.598863,0.762391,-0.046302,0.729552,0.457013,-0.010393,1,0,1
1452,'2026/05/14 12:05:17:739',5,0.679278,0.875903,-0.000001,0.59992,0.763646,-0.049092,0.728538,0.455878,-0.013274,1,0,1
1453,'2026/05/14 12:05:17:770',5,0.678774,0.876536,-0.000001,0.597705,0.763968,-0.046202,0.728073,0.457446,-0.011839,1,0,1
1454,'2026/05/14 12:05:17:801',5,0.678506,0.875914,-0.000001,0.59867,0.764718,-0.047642,0.728956,0.456265,-0.012903,1,0,1
1455,'2026/05/14 12:05:17:834',5,0.678263,0.874901,-0.000001,0.599058,0.764749,-0.049222,0.728995,0.456712,-0.016365,1,0,1
1456,'2026/05/14 12:05:17:865',5,0.679444,0.876362,-0.000001,0.599764,0.765974,-0.044286,0.728697,0.45759,-0.007667,1,0,1
1457,'2026/05/14 12:05:17:900',5,0.678623,0.874634,-0.000001,0.600484,0.763555,-0.046496,0.729809,0.45726,-0.013519,1,0,1
1458,'2026/05/14 12:05:17:929',5,0.679581,0.874461,-0.000001,0.597399,0.766694,-0.047346,0.728938,0.457546,-0.013001,1,0,1
1459,'2026/05/14 12:05:17:960',5,0.679488,0.874902,-0.000001,0.600201,0.764202,-0.047397,0.72967,0.456762,-0.012797,1,0,1
1460,'2026/05/14 12:05:18:005',5,0.678954,0.876161,-0.000001,0.60052,0.764993,-0.046081,0.728453,0.458315,-0.010832,1,0,1
1461,'2026/05/14 12:05:18:037',5,0.678568,0.87562,-0.000001,0.598929,0.764634,-0.048023,0.728865,0.456406,-0.013821,1,0,1
1462,'2026/05/14 12:05:18:067',5,0.677739,0.874052,-0.000001,0.599321,0.764395,-0.048747,0.729298,0.456362,-0.012443,1,0,1
1463,'2026/05/14 12:05:18:102',5,0.677304,0.87565,-0.000001,0.598948,0.764585,-0.048179,0.728425,0.456972,-0.01382,1,0,1
1464,'2026/05/14 12:05:18:133',5,0.677775,0.874636,-0.000001,0.598327,0.764406,-0.046897,0.728248,0.45753,-0.014483,1,0,1
1465,'2026/05/14 12:05:18:164',5,0.677976,0.876458,-0.000001,0.597588,0.766375,-0.04824,0.726237,0.457925,-0.014256,1,0,1
1466,'2026/05/14 12:05:18:196',5,0.677265,0.878461,-0.000001,0.599109,0.764366,-0.041617,0.725553,0.456679,-0.010647,1,0,1
1467,'2026/05/14 12:05:18:254',5,0.676944,0.87713,-0.000001,0.599368,0.764829,-0.042834,0.725404,0.45746,-0.009891,1,0,1
1468,'2026/05/14 12:05:18:289',5,0.676223,0.879584,-0.000001,0.594459,0.766589,-0.0446,0.724966,0.456115,-0.011048,1,0,1
1469,'2026/05/14 12:05:18:320',5,0.675746,0.878532,-0.000001,0.597317,0.766929,-0.040782,0.723513,0.454314,-0.010881,1,0,1
1470,'2026/05/14 12:05:18:353',5,0.675914,0.879328,-0.000001,0.590739,0.768121,-0.040871,0.723576,0.457191,-0.009453,1,0,1
1471,'2026/05/14 12:05:18:388',5,0.675526,0.880434,-0.000001,0.590997,0.767155,-0.038663,0.723806,0.455649,-0.007744,1,0,1
1472,'2026/05/14 12:05:18:416',5,0.674605,0.879851,-0.000001,0.594356,0.766307,-0.038913,0.723428,0.455953,-0.009899,1,0,1
1473,'2026/05/14 12:05:18:449',5,0.675936,0.877571,-0.000001,0.595804,0.767201,-0.047596,0.723096,0.457431,-0.012948,1,0,1
1474,'2026/05/14 12:05:18:480',5,0.67878,0.87934,-0.000001,0.599905,0.766048,-0.042682,0.724089,0.455793,-0.010519,1,0,1
1475,'2026/05/14 12:05:18:512',5,0.677259,0.878257,-0.000001,0.59723,0.766199,-0.041562,0.724481,0.455286,-0.010563,1,0,1
1476,'2026/05/14 12:05:18:543',5,0.679375,0.879339,-0.000001,0.600877,0.767209,-0.039703,0.724551,0.455414,-0.007786,1,0,1
1477,'2026/05/14 12:05:18:573',5,0.67988,0.878131,-0.000001,0.600001,0.762841,-0.040274,0.723996,0.456859,-0.010199,1,0,1
1478,'2026/05/14 12:05:18:605',5,0.678479,0.878167,-0.000001,0.597835,0.765588,-0.043477,0.725702,0.458233,-0.009365,1,0,1
1479,'2026/05/14 12:05:18:640',5,0.678584,0.876547,-0.000001,0.598926,0.765805,-0.047686,0.725731,0.458639,-0.012455,1,0,1
1480,'2026/05/14 12:05:18:675',5,0.679786,0.877826,-0.000001,0.602046,0.766779,-0.045637,0.725834,0.459294,-0.013303,1,0,1
1481,'2026/05/14 12:05:18:699',5,0.679775,0.877231,-0.000001,0.601177,0.766083,-0.045428,0.72697,0.459348,-0.012667,1,0,1
1482,'2026/05/14 12:05:18:730',5,0.681073,0.874703,-0.000001,0.602992,0.766953,-0.047499,0.726629,0.459713,-0.015446,1,0,1
1483,'2026/05/14 12:05:18:761',5,0.681922,0.875589,-0.000001,0.602034,0.765697,-0.045271,0.727881,0.46072,-0.012015,1,0,1
1484,'2026/05/14 12:05:18:805',5,0.6832,0.876687,-0.000001,0.603777,0.765498,-0.044751,0.728709,0.461043,-0.010791,1,0,1
1485,'2026/05/14 12:05:18:842',5,0.683138,0.878795,-0.000001,0.60278,0.766012,-0.04341,0.728285,0.46121,-0.009665,1,0,1
1486,'2026/05/14 12:05:18:875',5,0.682163,0.876725,-0.000001,0.60271,0.76485,-0.044406,0.728722,0.462034,-0.011457,1,0,1
1487,'2026/05/14 12:05:18:904',5,0.681711,0.877892,-0.000001,0.604035,0.765181,-0.045857,0.727894,0.461764,-0.011187,1,0,1
1488,'2026/05/14 12:05:18:938',5,0.681193,0.87661,-0.000001,0.603423,0.766816,-0.046148,0.727646,0.462386,-0.013625,1,0,1
1489,'2026/05/14 12:05:18:967',5,0.682257,0.876819,-0.000001,0.601113,0.767315,-0.046577,0.728586,0.461869,-0.013938,1,0,1
1490,'2026/05/14 12:05:19:000',5,0.683814,0.877173,-0.000001,0.604971,0.765886,-0.041659,0.728612,0.459398,-0.010632,1,0,1
1491,'2026/05/14 12:05:19:031',5,0.683716,0.874347,-0.000001,0.604815,0.765289,-0.044377,0.728954,0.461871,-0.012134,1,0,1
1492,'2026/05/14 12:05:19:062',5,0.68424,0.873753,-0.000001,0.605091,0.763835,-0.040158,0.729255,0.460404,-0.01563,1,0,1
1493,'2026/05/14 12:05:19:093',5,0.687151,0.874229,-0.000001,0.607437,0.762466,-0.031778,0.73053,0.462231,-0.007987,1,0,1
1494,'2026/05/14 12:05:19:124',5,0.686335,0.874164,-0.000001,0.603823,0.763608,-0.033622,0.730307,0.4617,-0.006837,1,0,1
1495,'2026/05/14 12:05:19:158',5,0.683822,0.875788,-0.000001,0.608048,0.76471,-0.040697,0.729621,0.460362,-0.008782,1,0,1
1496,'2026/05/14 12:05:19:205',5,0.684008,0.872894,-0.000001,0.605772,0.765061,-0.044079,0.727913,0.461072,-0.009751,1,0,1
1497,'2026/05/14 12:05:19:240',5,0.681183,0.87359,-0.000001,0.602067,0.766084,-0.047168,0.725992,0.459696,-0.01348,1,0,1
1498,'2026/05/14 12:05:19:268',5,0.678154,0.875721,-0.000001,0.598239,0.765702,-0.047335,0.724295,0.459756,-0.013944,1,0,1
1499,'2026/05/14 12:05:19:300',5,0.678211,0.87948,-0.000001,0.597658,0.766297,-0.038607,0.723408,0.457767,-0.009097,1,0,1
1500,'2026/05/14 12:05:19:339',5,0.677612,0.876484,-0.000001,0.596258,0.766757,-0.041108,0.721342,0.456996,-0.010476,1,0,1
1501,'2026/05/14 12:05:19:380',5,0.678057,0.876961,-0.000001,0.597455,0.766984,-0.042756,0.721063,0.456274,-0.009509,1,0,1
1502,'2026/05/14 12:05:19:410',5,0.677752,0.877305,-0.000001,0.598101,0.766904,-0.0477,0.720432,0.45899,-0.014829,1,0,1
1503,'2026/05/14 12:05:19:442',5,0.679217,0.879358,-0.000001,0.59995,0.767855,-0.037168,0.720958,0.458248,-0.008053,1,0,1
1504,'2026/05/14 12:05:19:476',5,0.677697,0.87876,-0.000001,0.595977,0.76733,-0.034306,0.722975,0.458137,-0.008721,1,0,1
1505,'2026/05/14 12:05:19:505',5,0.678222,0.878179,-0.000001,0.597088,0.768148,-0.042026,0.720903,0.457141,-0.008542,1,0,1
1506,'2026/05/14 12:05:19:537',5,0.67892,0.878597,-0.000001,0.597955,0.768234,-0.039224,0.720657,0.456642,-0.007549,1,0,1
1507,'2026/05/14 12:05:19:567',5,0.67628,0.881664,-0.000001,0.5915,0.770323,-0.037281,0.720532,0.456835,-0.009365,1,0,1
1508,'2026/05/14 12:05:19:610',5,0.67529,0.87815,-0.000001,0.595539,0.769551,-0.040755,0.719915,0.458011,-0.010913,1,0,1
1509,'2026/05/14 12:05:19:647',5,0.675315,0.878663,-0.000001,0.593376,0.767708,-0.037294,0.71986,0.458284,-0.011785,1,0,1
1510,'2026/05/14 12:05:19:678',5,0.677242,0.877988,-0.000001,0.595005,0.768264,-0.043335,0.719017,0.457309,-0.011787,1,0,1
1511,'2026/05/14 12:05:19:707',5,0.678158,0.878035,-0.000001,0.59638,0.768514,-0.043141,0.717873,0.454954,-0.012261,1,0,1
1512,'2026/05/14 12:05:19:740',5,0.677198,0.877796,-0.000001,0.595874,0.767606,-0.047549,0.718723,0.457107,-0.015721,1,0,1
1513,'2026/05/14 12:05:19:771',5,0.678266,0.879496,-0.000001,0.595659,0.769837,-0.039181,0.71952,0.456923,-0.006779,1,0,1
1514,'2026/05/14 12:05:19:804',5,0.678538,0.879458,-0.000001,0.597015,0.76724,-0.039074,0.720462,0.456516,-0.011527,1,0,1
1515,'2026/05/14 12:05:19:834',5,0.678936,0.878878,-0.000001,0.598471,0.767472,-0.035038,0.722063,0.458447,-0.009919,1,0,1
1516,'2026/05/14 12:05:19:867',5,0.680309,0.879367,-0.000001,0.598979,0.767518,-0.037692,0.720792,0.456958,-0.008628,1,0,1
1517,'2026/05/14 12:05:19:899',5,0.679589,0.879023,-0.000001,0.599141,0.767847,-0.038931,0.720708,0.457168,-0.010625,1,0,1
1518,'2026/05/14 12:05:19:940',5,0.677705,0.87916,-0.000001,0.597335,0.767837,-0.036588,0.722143,0.458114,-0.011148,1,0,1
1519,'2026/05/14 12:05:19:998',5,0.681518,0.878441,-0.000001,0.600209,0.766978,-0.038348,0.720683,0.456313,-0.008153,1,0,1
1520,'2026/05/14 12:05:20:027',5,0.679229,0.87736,-0.000001,0.598084,0.767147,-0.039714,0.720638,0.456265,-0.011331,1,0,1
1521,'2026/05/14 12:05:20:057',5,0.678848,0.878305,-0.000001,0.595518,0.767782,-0.03718,0.720206,0.457642,-0.009272,1,0,1
1522,'2026/05/14 12:05:20:089',5,0.679497,0.878729,-0.000001,0.599177,0.767774,-0.036878,0.720812,0.457352,-0.010478,1,0,1
1523,'2026/05/14 12:05:20:125',5,0.680233,0.87846,-0.000001,0.599245,0.767367,-0.040779,0.721145,0.456295,-0.009778,1,0,1
1524,'2026/05/14 12:05:20:159',5,0.680154,0.877433,-0.000001,0.59929,0.767791,-0.037911,0.722379,0.457947,-0.00733,1,0,1
1525,'2026/05/14 12:05:20:182',5,0.680972,0.87769,-0.000001,0.600888,0.767596,-0.039024,0.722172,0.458062,-0.008619,1,0,1
1526,'2026/05/14 12:05:20:214',5,0.680611,0.879514,-0.000001,0.600671,0.767341,-0.038496,0.722015,0.459266,-0.0065,1,0,1
1527,'2026/05/14 12:05:20:245',5,0.68119,0.876448,-0.000001,0.601275,0.76555,-0.039684,0.721479,0.458765,-0.011124,1,0,1
1528,'2026/05/14 12:05:20:275',5,0.67972,0.877144,-0.000001,0.598834,0.766134,-0.039319,0.722657,0.45878,-0.010938,1,0,1
1529,'2026/05/14 12:05:20:306',5,0.681197,0.875393,-0.000001,0.600972,0.767261,-0.039711,0.721726,0.458875,-0.01378,1,0,1
1530,'2026/05/14 12:05:20:340',5,0.680146,0.878002,-0.000001,0.599491,0.767181,-0.042578,0.722353,0.457642,-0.011276,1,0,1
1531,'2026/05/14 12:05:20:370',5,0.680414,0.879012,-0.000001,0.6019,0.766982,-0.04004,0.722817,0.457989,-0.008923,1,0,1
1532,'2026/05/14 12:05:20:406',5,0.680648,0.878001,-0.000001,0.600368,0.765987,-0.041736,0.722866,0.459627,-0.010696,1,0,1
1533,'2026/05/14 12:05:20:436',5,0.681094,0.875894,-0.000001,0.602284,0.76663,-0.039482,0.720603,0.458691,-0.013541,1,0,1
1534,'2026/05/14 12:05:20:469',5,0.679688,0.877843,-0.000001,0.599388,0.767247,-0.043427,0.722686,0.45918,-0.012462,1,0,1
1535,'2026/05/14 12:05:20:500',5,0.68008,0.877384,-0.000001,0.598458,0.766408,-0.037366,0.72194,0.45881,-0.007378,1,0,1
1536,'2026/05/14 12:05:20:532',5,0.680991,0.878959,-0.000001,0.601375,0.766529,-0.040117,0.723107,0.457738,-0.009604,1,0,1
1537,'2026/05/14 12:05:20:563',5,0.680037,0.877843,-0.000001,0.600214,0.766516,-0.044095,0.723309,0.459197,-0.013504,1,0,1
1538,'2026/05/14 12:05:20:597',5,0.679895,0.876988,-0.000001,0.599938,0.76674,-0.04201,0.724687,0.460575,-0.010866,1,0,1
1539,'2026/05/14 12:05:20:629',5,0.68035,0.874613,-0.000001,0.597759,0.767883,-0.043124,0.72355,0.460412,-0.013552,1,0,1
1540,'2026/05/14 12:05:20:669',5,0.68088,0.874469,-0.000001,0.599623,0.767122,-0.043026,0.724082,0.461089,-0.014594,1,0,1
1541,'2026/05/14 12:05:20:699',5,0.680765,0.875046,-0.000001,0.599546,0.765656,-0.043749,0.723328,0.459547,-0.012324,1,0,1
1542,'2026/05/14 12:05:20:762',5,0.679813,0.873881,-0.000001,0.598555,0.767472,-0.043604,0.72381,0.460647,-0.014679,1,0,1
1543,'2026/05/14 12:05:20:796',5,0.68142,0.87713,-0.000001,0.599944,0.765908,-0.042368,0.723601,0.459926,-0.01003,1,0,1
1544,'2026/05/14 12:05:20:828',5,0.680945,0.876303,-0.000001,0.600569,0.765216,-0.042189,0.723427,0.458149,-0.01176,1,0,1
1545,'2026/05/14 12:05:20:857',5,0.680738,0.878204,-0.000001,0.601051,0.767385,-0.041458,0.723223,0.458563,-0.010189,1,0,1
1546,'2026/05/14 12:05:20:895',5,0.680226,0.876328,-0.000001,0.599914,0.765322,-0.045147,0.723013,0.460574,-0.013241,1,0,1
1547,'2026/05/14 12:05:20:920',5,0.681125,0.875978,-0.000001,0.599414,0.765601,-0.041748,0.72362,0.459548,-0.010236,1,0,1
1548,'2026/05/14 12:05:20:949',5,0.680765,0.876071,-0.000001,0.600019,0.765897,-0.041342,0.722853,0.459617,-0.009144,1,0,1
1549,'2026/05/14 12:05:20:982',5,0.681515,0.877065,-0.000001,0.60136,0.766372,-0.042083,0.723056,0.457325,-0.010874,1,0,1
1550,'2026/05/14 12:05:21:013',5,0.681749,0.878582,-0.000001,0.602506,0.76578,-0.040021,0.722892,0.458793,-0.008357,1,0,1
1551,'2026/05/14 12:05:21:047',5,0.682051,0.875111,-0.000001,0.603518,0.766351,-0.046213,0.722886,0.457773,-0.013435,1,0,1
1552,'2026/05/14 12:05:21:077',5,0.681946,0.87461,-0.000001,0.602569,0.765749,-0.045555,0.723061,0.456921,-0.014273,1,0,1
1553,'2026/05/14 12:05:21:109',5,0.682146,0.876009,-0.000001,0.603852,0.765344,-0.043587,0.723507,0.456733,-0.012232,1,0,1
1554,'2026/05/14 12:05:21:139',5,0.683064,0.874894,-0.000001,0.606203,0.76604,-0.046371,0.7235,0.457123,-0.012911,1,0,1
1555,'2026/05/14 12:05:21:175',5,0.6831,0.877608,-0.000001,0.603205,0.766043,-0.042276,0.723273,0.457225,-0.01096,1,0,1
1556,'2026/05/14 12:05:21:204',5,0.685914,0.874654,-0.000001,0.606506,0.765143,-0.040004,0.72375,0.458075,-0.005685,1,0,1
1557,'2026/05/14 12:05:21:260',5,0.683263,0.874721,-0.000001,0.605434,0.766702,-0.043302,0.723677,0.457851,-0.01077,1,0,1
1558,'2026/05/14 12:05:21:309',5,0.68245,0.874048,-0.000001,0.603346,0.766266,-0.044187,0.722814,0.457234,-0.011571,1,0,1
1559,'2026/05/14 12:05:21:346',5,0.682995,0.875714,-0.000001,0.604552,0.765167,-0.04564,0.723931,0.458753,-0.010867,1,0,1
1560,'2026/05/14 12:05:21:376',5,0.684833,0.876197,-0.000001,0.606294,0.764924,-0.0398,0.724051,0.458803,-0.004965,1,0,1
1561,'2026/05/14 12:05:21:407',5,0.683485,0.874765,-0.000001,0.604924,0.765208,-0.044864,0.723573,0.457421,-0.012418,1,0,1
1562,'2026/05/14 12:05:21:441',5,0.683558,0.877811,-0.000001,0.604677,0.764498,-0.042771,0.723589,0.457322,-0.010096,1,0,1
1563,'2026/05/14 12:05:21:469',5,0.68319,0.875135,-0.000001,0.60476,0.765834,-0.047732,0.723335,0.457407,-0.012046,1,0,1
1564,'2026/05/14 12:05:21:510',5,0.682904,0.875128,-0.000001,0.605632,0.765943,-0.044061,0.723231,0.458052,-0.010395,1,0,1
1565,'2026/05/14 12:05:21:553',5,0.682184,0.876565,-0.000001,0.604024,0.765626,-0.043925,0.723055,0.457455,-0.01032,1,0,1
1566,'2026/05/14 12:05:21:579',5,0.681336,0.874917,-0.000001,0.600728,0.765749,-0.043126,0.723432,0.458159,-0.012063,1,0,1
1567,'2026/05/14 12:05:21:613',5,0.681438,0.875099,-0.000001,0.602773,0.766572,-0.045007,0.722494,0.457824,-0.014486,1,0,1
1568,'2026/05/14 12:05:21:642',5,0.680743,0.875627,-0.000001,0.601161,0.765433,-0.041792,0.723047,0.459171,-0.011926,1,0,1
1569,'2026/05/14 12:05:21:672',5,0.681224,0.874991,-0.000001,0.600807,0.766889,-0.042809,0.722664,0.458746,-0.01159,1,0,1
1570,'2026/05/14 12:05:21:705',5,0.68171,0.875093,-0.000001,0.60227,0.767049,-0.042747,0.723145,0.459739,-0.013967,1,0,1
1571,'2026/05/14 12:05:21:737',5,0.682052,0.875635,-0.000001,0.604461,0.766086,-0.044775,0.722542,0.459608,-0.014104,1,0,1
1572,'2026/05/14 12:05:21:767',5,0.680913,0.874109,-0.000001,0.600878,0.768436,-0.046446,0.7219,0.459335,-0.015899,1,0,1
1573,'2026/05/14 12:05:21:801',5,0.682211,0.874331,-0.000001,0.603246,0.764434,-0.044826,0.722098,0.459316,-0.012402,1,0,1
1574,'2026/05/14 12:05:21:830',5,0.680389,0.876809,-0.000001,0.600911,0.766467,-0.044596,0.722502,0.457675,-0.014309,1,0,1
1575,'2026/05/14 12:05:21:863',5,0.680407,0.874787,-0.000001,0.600331,0.767215,-0.046357,0.722264,0.460002,-0.016475,1,0,1
1576,'2026/05/14 12:05:21:894',5,0.680965,0.874328,-0.000001,0.60081,0.768249,-0.04583,0.722136,0.459437,-0.016738,1,0,1
1577,'2026/05/14 12:05:21:925',5,0.681048,0.875017,-0.000001,0.600363,0.766637,-0.044506,0.723349,0.458686,-0.013043,1,0,1
1578,'2026/05/14 12:05:21:958',5,0.679508,0.874918,-0.000001,0.600314,0.767228,-0.043405,0.72234,0.459622,-0.014057,1,0,1
1579,'2026/05/14 12:05:21:987',5,0.683465,0.876511,-0.000001,0.606367,0.765889,-0.039421,0.721556,0.458867,-0.00659,1,0,1
1580,'2026/05/14 12:05:22:020',5,0.679648,0.872665,-0.000001,0.603692,0.765513,-0.043726,0.72158,0.459369,-0.014465,1,0,1
1581,'2026/05/14 12:05:22:052',5,0.680081,0.873786,-0.000001,0.602185,0.765973,-0.043472,0.72252,0.460654,-0.014224,1,0,1
1582,'2026/05/14 12:05:22:082',5,0.680655,0.871138,-0.000001,0.604252,0.764893,-0.046296,0.721319,0.461046,-0.014431,1,0,1
1583,'2026/05/14 12:05:22:113',5,0.681818,0.873951,-0.000001,0.605465,0.76558,-0.041436,0.720606,0.460023,-0.009236,1,0,1
1584,'2026/05/14 12:05:22:147',5,0.682743,0.876517,-0.000001,0.606028,0.764921,-0.04132,0.721556,0.460088,-0.007593,1,0,1
1585,'2026/05/14 12:05:22:176',5,0.683564,0.874325,-0.000001,0.606783,0.765118,-0.042157,0.721337,0.4605,-0.006917,1,0,1
1586,'2026/05/14 12:05:22:210',5,0.681854,0.875284,-0.000001,0.603488,0.76502,-0.046435,0.721663,0.461135,-0.012922,1,0,1
1587,'2026/05/14 12:05:22:238',5,0.680299,0.872674,-0.000001,0.60341,0.765674,-0.044945,0.721154,0.461178,-0.015258,1,0,1
1588,'2026/05/14 12:05:22:274',5,0.68201,0.87487,-0.000001,0.605969,0.766231,-0.042359,0.721816,0.459661,-0.011635,1,0,1
1589,'2026/05/14 12:05:22:304',5,0.680664,0.871407,-0.000001,0.602803,0.766484,-0.046935,0.72064,0.459782,-0.018584,1,0,1
1590,'2026/05/14 12:05:22:334',5,0.681444,0.873302,-0.000001,0.602329,0.766076,-0.044039,0.720391,0.459777,-0.013287,1,0,1
