@relation dataset

@attribute ID numeric
@attribute Time date 'yyyy/MM/dd HH:mm:ss:SSS'
@attribute 'Training round' numeric
@attribute inputs-1 numeric
@attribute inputs-2 numeric
@attribute inputs-3 numeric
@attribute outputs-1 numeric
@attribute outputs-2 numeric

@data
1,'2026/05/01 18:25:13:372',1,0.046875,0.989583,0,0.2,0.2
2,'2026/05/01 18:25:13:402',1,0.046875,0.989583,0,0.2,0.2
3,'2026/05/01 18:25:13:432',1,0.046875,0.989583,0,0.2,0.2
4,'2026/05/01 18:25:13:464',1,0.046875,0.989583,0,0.2,0.2
5,'2026/05/01 18:25:13:497',1,0.046875,0.989583,0,0.2,0.2
6,'2026/05/01 18:25:13:526',1,0.046875,0.989583,0,0.2,0.2
7,'2026/05/01 18:25:13:542',1,0.046875,0.989583,0,0.2,0.2
8,'2026/05/01 18:25:13:573',1,0.046875,0.989583,0,0.2,0.2
9,'2026/05/01 18:25:13:604',1,0.046875,0.989583,0,0.2,0.2
10,'2026/05/01 18:25:13:635',1,0.046875,0.989583,0,0.2,0.2
11,'2026/05/01 18:25:13:665',1,0.046875,0.989583,0,0.2,0.2
12,'2026/05/01 18:25:13:697',1,0.046875,0.989583,0,0.2,0.2
13,'2026/05/01 18:25:13:728',1,0.046875,0.989583,0,0.2,0.2
14,'2026/05/01 18:25:13:745',1,0.046875,0.989583,0,0.2,0.2
15,'2026/05/01 18:25:13:775',1,0.046875,0.989583,0,0.2,0.2
16,'2026/05/01 18:25:13:805',1,0.046875,0.989583,0,0.2,0.2
17,'2026/05/01 18:25:13:838',1,0.046875,0.989583,0,0.2,0.2
18,'2026/05/01 18:25:13:866',1,0.046875,0.989583,0,0.2,0.2
19,'2026/05/01 18:25:13:883',1,0.046875,0.989583,0,0.2,0.2
20,'2026/05/01 18:25:13:899',1,0.046875,0.989583,0,0.2,0.2
21,'2026/05/01 18:25:13:914',1,0.046875,0.989583,0,0.2,0.2
22,'2026/05/01 18:25:13:931',1,0.046875,0.989583,0,0.2,0.2
23,'2026/05/01 18:25:13:962',1,0.046875,0.989583,0,0.2,0.2
24,'2026/05/01 18:25:13:993',1,0.046875,0.989583,0,0.2,0.2
25,'2026/05/01 18:25:14:009',1,0.046875,0.989583,0,0.2,0.2
26,'2026/05/01 18:25:14:040',1,0.046875,0.989583,0,0.2,0.2
27,'2026/05/01 18:25:14:057',1,0.046875,0.989583,0,0.2,0.2
28,'2026/05/01 18:25:14:088',1,0.046875,0.989583,0,0.2,0.2
29,'2026/05/01 18:25:14:118',1,0.046875,0.989583,0,0.2,0.2
30,'2026/05/01 18:25:14:149',1,0.046875,0.989583,0,0.2,0.2
31,'2026/05/01 18:25:14:180',1,0.046875,0.989583,0,0.2,0.2
32,'2026/05/01 18:25:14:215',1,0.046875,0.989583,0,0.2,0.2
33,'2026/05/01 18:25:14:244',1,0.046875,0.989583,0,0.2,0.2
34,'2026/05/01 18:25:14:260',1,0.046875,0.989583,0,0.2,0.2
35,'2026/05/01 18:25:14:291',1,0.046875,0.989583,0,0.2,0.2
36,'2026/05/01 18:25:14:307',1,0.046875,0.989583,0,0.2,0.2
37,'2026/05/01 18:25:14:323',1,0.046875,0.989583,0,0.2,0.2
38,'2026/05/01 18:25:14:340',1,0.046875,0.989583,0,0.2,0.2
39,'2026/05/01 18:25:14:355',1,0.046875,0.989583,0,0.2,0.2
40,'2026/05/01 18:25:14:386',1,0.046875,0.989583,0,0.2,0.2
41,'2026/05/01 18:25:14:416',1,0.046875,0.989583,0,0.2,0.2
42,'2026/05/01 18:25:14:432',1,0.046875,0.989583,0,0.2,0.2
43,'2026/05/01 18:25:14:464',1,0.046875,0.989583,0,0.2,0.2
44,'2026/05/01 18:25:14:480',1,0.046875,0.989583,0,0.2,0.2
45,'2026/05/01 18:25:14:510',1,0.046875,0.989583,0,0.2,0.2
46,'2026/05/01 18:25:14:542',1,0.046875,0.989583,0,0.2,0.2
47,'2026/05/01 18:25:14:575',1,0.046875,0.989583,0,0.2,0.2
48,'2026/05/01 18:25:14:604',1,0.046875,0.989583,0,0.2,0.2
49,'2026/05/01 18:25:14:636',1,0.046875,0.989583,0,0.2,0.2
50,'2026/05/01 18:25:14:666',1,0.046875,0.989583,0,0.2,0.2
51,'2026/05/01 18:25:14:697',1,0.046875,0.989583,0,0.2,0.2
52,'2026/05/01 18:25:14:727',1,0.046875,0.989583,0,0.2,0.2
53,'2026/05/01 18:25:14:757',1,0.046875,0.989583,0,0.2,0.2
54,'2026/05/01 18:25:14:788',1,0.046875,0.989583,0,0.2,0.2
55,'2026/05/01 18:25:14:804',1,0.046875,0.989583,0,0.2,0.2
56,'2026/05/01 18:25:14:819',1,0.046875,0.989583,0,0.2,0.2
57,'2026/05/01 18:25:14:836',1,0.046875,0.989583,0,0.2,0.2
58,'2026/05/01 18:25:14:852',1,0.046875,0.989583,0,0.2,0.2
59,'2026/05/01 18:25:14:870',1,0.046875,0.989583,0,0.2,0.2
60,'2026/05/01 18:25:14:886',1,0.046875,0.989583,0,0.2,0.2
61,'2026/05/01 18:25:14:903',1,0.046875,0.989583,0,0.2,0.2
62,'2026/05/01 18:25:14:919',1,0.046875,0.989583,0,0.2,0.2
63,'2026/05/01 18:25:14:935',1,0.046875,0.989583,0,0.2,0.2
64,'2026/05/01 18:25:14:952',1,0.046875,0.989583,0,0.2,0.2
65,'2026/05/01 18:25:14:968',1,0.046875,0.989583,0,0.2,0.2
66,'2026/05/01 18:25:14:985',1,0.046875,0.989583,0,0.2,0.2
67,'2026/05/01 18:25:15:001',1,0.245312,0.9125,1,0.2,0.2
68,'2026/05/01 18:25:15:018',1,0.245312,0.777083,1,0.2,0.2
69,'2026/05/01 18:25:15:033',1,0.245312,0.639583,1,0.2,0.2
70,'2026/05/01 18:25:15:050',1,0.246875,0.604167,0.340588,0.2,0.2
71,'2026/05/01 18:25:15:067',1,0.25,0.529167,0.72111,0.2,0.2
72,'2026/05/01 18:25:15:084',1,0.248437,0.485417,0.420476,0.2,0.2
73,'2026/05/01 18:25:15:101',1,0.246875,0.427083,0.560357,0.2,0.2
74,'2026/05/01 18:25:15:118',1,0.242188,0.397917,0.286356,0.2,0.2
75,'2026/05/01 18:25:15:135',1,0.239063,0.39375,0.056569,0.2,0.2
76,'2026/05/01 18:25:15:151',1,0.232812,0.38125,0.144222,0.2,0.2
77,'2026/05/01 18:25:15:168',1,0.229687,0.377083,0.056569,0.2,0.2
78,'2026/05/01 18:25:15:185',1,0.21875,0.354167,0.260768,0.2,0.2
79,'2026/05/01 18:25:15:201',1,0.209375,0.310417,0.436807,0.2,0.2
80,'2026/05/01 18:25:15:218',1,0.207813,0.266667,0.420476,0.2,0.2
81,'2026/05/01 18:25:15:235',1,0.209375,0.1875,0.760263,0.2,0.2
82,'2026/05/01 18:25:15:251',1,0.2125,0.152083,0.342345,0.2,0.2
83,'2026/05/01 18:25:15:268',1,0.229687,0.066667,0.848999,0.2,0.2
84,'2026/05/01 18:25:15:284',1,0.240625,0.022917,0.442719,0.2,0.2
85,'2026/05/01 18:25:15:300',1,0.245312,0.008333,0.152315,0.2,0.2
86,'2026/05/01 18:25:15:316',1,0.245312,0.008333,0,0.2,0.2
87,'2026/05/01 18:25:15:333',1,0.245312,0.008333,0,0.2,0.2
88,'2026/05/01 18:25:15:349',1,0.245312,0.008333,0,0.2,0.2
89,'2026/05/01 18:25:15:366',1,0.278125,0.020833,0.436807,0.2,0.2
90,'2026/05/01 18:25:15:382',1,0.279687,0.04375,0.220907,0.2,0.2
91,'2026/05/01 18:25:15:400',1,0.279687,0.127083,0.8,0.2,0.2
92,'2026/05/01 18:25:15:416',1,0.264062,0.220833,0.921954,0.2,0.2
93,'2026/05/01 18:25:15:432',1,0.25,0.272917,0.531413,0.2,0.2
94,'2026/05/01 18:25:15:448',1,0.225,0.335417,0.68,0.2,0.2
95,'2026/05/01 18:25:15:465',1,0.214062,0.352083,0.212603,0.2,0.2
96,'2026/05/01 18:25:15:482',1,0.18125,0.391667,0.566392,0.2,0.2
97,'2026/05/01 18:25:15:499',1,0.157813,0.404167,0.32311,0.2,0.2
98,'2026/05/01 18:25:15:515',1,0.134375,0.408333,0.302655,0.2,0.2
99,'2026/05/01 18:25:15:532',1,0.103125,0.397917,0.412311,0.2,0.2
100,'2026/05/01 18:25:15:548',1,0.090625,0.383333,0.212603,0.2,0.2
101,'2026/05/01 18:25:15:564',1,0.079687,0.347917,0.367696,0.2,0.2
102,'2026/05/01 18:25:15:581',1,0.079687,0.3375,0.1,0.2,0.2
103,'2026/05/01 18:25:15:597',1,0.08125,0.314583,0.220907,0.2,0.2
104,'2026/05/01 18:25:15:613',1,0.089062,0.304167,0.141421,0.2,0.2
105,'2026/05/01 18:25:15:630',1,0.125,0.285417,0.493964,0.2,0.2
106,'2026/05/01 18:25:15:647',1,0.185937,0.26875,0.796241,0.2,0.2
107,'2026/05/01 18:25:15:664',1,0.201562,0.26875,0.2,0.2,0.2
108,'2026/05/01 18:25:15:679',1,0.240625,0.28125,0.514198,0.2,0.2
109,'2026/05/01 18:25:15:696',1,0.253125,0.29375,0.2,0.2,0.2
110,'2026/05/01 18:25:15:714',1,0.26875,0.360417,0.670522,0.2,0.2
111,'2026/05/01 18:25:15:730',1,0.270312,0.422917,0.600333,0.2,0.2
112,'2026/05/01 18:25:15:747',1,0.2625,0.460417,0.373631,0.2,0.2
113,'2026/05/01 18:25:15:764',1,0.239063,0.497917,0.468615,0.2,0.2
114,'2026/05/01 18:25:15:780',1,0.229687,0.504167,0.134164,0.2,0.2
115,'2026/05/01 18:25:15:796',1,0.190625,0.514583,0.509902,0.2,0.2
116,'2026/05/01 18:25:15:813',1,0.159375,0.50625,0.407922,0.2,0.2
117,'2026/05/01 18:25:15:832',1,0.114063,0.46875,0.682642,0.2,0.2
118,'2026/05/01 18:25:15:847',1,0.075,0.4,0.82801,0.2,0.2
119,'2026/05/01 18:25:15:864',1,0.067188,0.364583,0.354401,0.2,0.2
120,'2026/05/01 18:25:15:880',1,0.057813,0.270833,0.907965,0.2,0.2
121,'2026/05/01 18:25:15:896',1,0.0625,0.214583,0.543323,0.2,0.2
122,'2026/05/01 18:25:15:913',1,0.073437,0.1625,0.51923,0.2,0.2
123,'2026/05/01 18:25:15:929',1,0.076563,0.154167,0.089443,0.2,0.2
124,'2026/05/01 18:25:15:946',1,0.098438,0.13125,0.35609,0.2,0.2
125,'2026/05/01 18:25:15:962',1,0.123438,0.114583,0.357771,0.2,0.2
126,'2026/05/01 18:25:15:979',1,0.160938,0.104167,0.490306,0.2,0.2
127,'2026/05/01 18:25:15:996',1,0.171875,0.104167,0.14,0.2,0.2
128,'2026/05/01 18:25:16:013',1,0.196875,0.116667,0.34176,0.2,0.2
129,'2026/05/01 18:25:16:029',1,0.215625,0.1625,0.501199,0.2,0.2
130,'2026/05/01 18:25:16:046',1,0.220313,0.2125,0.483735,0.2,0.2
131,'2026/05/01 18:25:16:062',1,0.2125,0.295833,0.806226,0.2,0.2
132,'2026/05/01 18:25:16:079',1,0.207813,0.325,0.286356,0.2,0.2
133,'2026/05/01 18:25:16:095',1,0.185937,0.397917,0.753923,0.2,0.2
134,'2026/05/01 18:25:16:111',1,0.153125,0.439583,0.58,0.2,0.2
135,'2026/05/01 18:25:16:128',1,0.142188,0.45,0.172047,0.2,0.2
136,'2026/05/01 18:25:16:144',1,0.10625,0.458333,0.466905,0.2,0.2
137,'2026/05/01 18:25:16:161',1,0.095312,0.454167,0.145602,0.2,0.2
138,'2026/05/01 18:25:16:178',1,0.0625,0.427083,0.493964,0.2,0.2
139,'2026/05/01 18:25:16:194',1,0.040625,0.366667,0.64405,0.2,0.2
140,'2026/05/01 18:25:16:212',1,0.0375,0.320833,0.441814,0.2,0.2
141,'2026/05/01 18:25:16:228',1,0.051562,0.258333,0.626418,0.2,0.2
142,'2026/05/01 18:25:16:245',1,0.059375,0.235417,0.241661,0.2,0.2
143,'2026/05/01 18:25:16:262',1,0.096875,0.172917,0.768375,0.2,0.2
144,'2026/05/01 18:25:16:279',1,0.128125,0.141667,0.5,0.2,0.2
145,'2026/05/01 18:25:16:294',1,0.16875,0.114583,0.581378,0.2,0.2
146,'2026/05/01 18:25:16:312',1,0.185937,0.108333,0.228035,0.2,0.2
147,'2026/05/01 18:25:16:330',1,0.2,0.108333,0.18,0.2,0.2
148,'2026/05/01 18:25:16:344',1,0.225,0.127083,0.367151,0.2,0.2
149,'2026/05/01 18:25:16:361',1,0.2375,0.152083,0.288444,0.2,0.2
150,'2026/05/01 18:25:16:379',1,0.240625,0.202083,0.481664,0.2,0.2
151,'2026/05/01 18:25:16:396',1,0.239063,0.216667,0.141421,0.2,0.2
152,'2026/05/01 18:25:16:411',1,0.21875,0.272917,0.599333,0.2,0.2
153,'2026/05/01 18:25:16:427',1,0.2,0.302083,0.368782,0.2,0.2
154,'2026/05/01 18:25:16:444',1,0.164063,0.329167,0.528394,0.2,0.2
155,'2026/05/01 18:25:16:460',1,0.148438,0.335417,0.208806,0.2,0.2
156,'2026/05/01 18:25:16:476',1,0.092188,0.34375,0.724431,0.2,0.2
157,'2026/05/01 18:25:16:493',1,0.0625,0.33125,0.398497,0.2,0.2
158,'2026/05/01 18:25:16:509',1,0.029687,0.304167,0.493964,0.2,0.2
159,'2026/05/01 18:25:16:526',1,0.021875,0.291667,0.156205,0.2,0.2
160,'2026/05/01 18:25:16:542',1,0.017188,0.266667,0.247386,0.2,0.2
161,'2026/05/01 18:25:16:558',1,0.029687,0.222917,0.449444,0.2,0.2
162,'2026/05/01 18:25:16:574',1,0.051562,0.18125,0.488262,0.2,0.2
163,'2026/05/01 18:25:16:591',1,0.1,0.133333,0.77201,0.2,0.2
164,'2026/05/01 18:25:16:608',1,0.117188,0.120833,0.250599,0.2,0.2
165,'2026/05/01 18:25:16:624',1,0.1625,0.102083,0.607289,0.2,0.2
166,'2026/05/01 18:25:16:641',1,0.179688,0.1,0.220907,0.2,0.2
167,'2026/05/01 18:25:16:658',1,0.217187,0.108333,0.486621,0.2,0.2
168,'2026/05/01 18:25:16:674',1,0.25,0.158333,0.637809,0.2,0.2
169,'2026/05/01 18:25:16:689',1,0.260938,0.210417,0.51923,0.2,0.2
170,'2026/05/01 18:25:16:705',1,0.267188,0.285417,0.724431,0.2,0.2
171,'2026/05/01 18:25:16:722',1,0.265625,0.30625,0.200998,0.2,0.2
172,'2026/05/01 18:25:16:738',1,0.254687,0.364583,0.577235,0.2,0.2
173,'2026/05/01 18:25:16:754',1,0.2375,0.391667,0.340588,0.2,0.2
174,'2026/05/01 18:25:16:771',1,0.207813,0.41875,0.460435,0.2,0.2
175,'2026/05/01 18:25:16:788',1,0.19375,0.422917,0.184391,0.2,0.2
176,'2026/05/01 18:25:16:804',1,0.148438,0.414583,0.585491,0.2,0.2
177,'2026/05/01 18:25:16:820',1,0.134375,0.404167,0.205913,0.2,0.2
178,'2026/05/01 18:25:16:836',1,0.096875,0.352083,0.693109,0.2,0.2
179,'2026/05/01 18:25:16:854',1,0.084375,0.3,0.524976,0.2,0.2
180,'2026/05/01 18:25:16:870',1,0.0875,0.277083,0.223607,0.2,0.2
181,'2026/05/01 18:25:16:886',1,0.10625,0.23125,0.501199,0.2,0.2
182,'2026/05/01 18:25:16:903',1,0.117188,0.2125,0.228035,0.2,0.2
183,'2026/05/01 18:25:16:919',1,0.15,0.16875,0.59397,0.2,0.2
184,'2026/05/01 18:25:16:936',1,0.173438,0.145833,0.372022,0.2,0.2
185,'2026/05/01 18:25:16:952',1,0.196875,0.13125,0.331059,0.2,0.2
186,'2026/05/01 18:25:16:969',1,0.229687,0.127083,0.4219,0.2,0.2
187,'2026/05/01 18:25:16:985',1,0.251563,0.139583,0.304631,0.2,0.2
188,'2026/05/01 18:25:17:001',1,0.275,0.177083,0.468615,0.2,0.2
189,'2026/05/01 18:25:17:018',1,0.28125,0.195833,0.196977,0.2,0.2
190,'2026/05/01 18:25:17:035',1,0.285937,0.252083,0.543323,0.2,0.2
191,'2026/05/01 18:25:17:051',1,0.285937,0.297917,0.44,0.2,0.2
192,'2026/05/01 18:25:17:068',1,0.271875,0.35625,0.588218,0.2,0.2
193,'2026/05/01 18:25:17:084',1,0.253125,0.3875,0.384187,0.2,0.2
194,'2026/05/01 18:25:17:101',1,0.24375,0.397917,0.156205,0.2,0.2
195,'2026/05/01 18:25:17:117',1,0.2125,0.410417,0.417612,0.2,0.2
196,'2026/05/01 18:25:17:133',1,0.182812,0.40625,0.382099,0.2,0.2
197,'2026/05/01 18:25:17:149',1,0.1375,0.370833,0.672309,0.2,0.2
198,'2026/05/01 18:25:17:167',1,0.128125,0.352083,0.216333,0.2,0.2
199,'2026/05/01 18:25:17:184',1,0.107813,0.295833,0.599333,0.2,0.2
200,'2026/05/01 18:25:17:200',1,0.107813,0.266667,0.28,0.2,0.2
201,'2026/05/01 18:25:17:217',1,0.110937,0.254167,0.126491,0.2,0.2
202,'2026/05/01 18:25:17:233',1,0.135937,0.2125,0.51225,0.2,0.2
203,'2026/05/01 18:25:17:250',1,0.159375,0.183333,0.410366,0.2,0.2
204,'2026/05/01 18:25:17:267',1,0.207813,0.15,0.697711,0.2,0.2
205,'2026/05/01 18:25:17:283',1,0.226563,0.145833,0.243311,0.2,0.2
206,'2026/05/01 18:25:17:300',1,0.28125,0.1375,0.704557,0.2,0.2
207,'2026/05/01 18:25:17:317',1,0.315625,0.158333,0.483322,0.2,0.2
208,'2026/05/01 18:25:17:333',1,0.323438,0.170833,0.156205,0.2,0.2
209,'2026/05/01 18:25:17:350',1,0.334375,0.21875,0.480833,0.2,0.2
210,'2026/05/01 18:25:17:367',1,0.335938,0.252083,0.320624,0.2,0.2
211,'2026/05/01 18:25:17:383',1,0.328125,0.30625,0.529528,0.2,0.2
212,'2026/05/01 18:25:17:399',1,0.320313,0.320833,0.172047,0.2,0.2
213,'2026/05/01 18:25:17:415',1,0.29375,0.36875,0.572014,0.2,0.2
214,'2026/05/01 18:25:17:432',1,0.25625,0.395833,0.545894,0.2,0.2
215,'2026/05/01 18:25:17:449',1,0.225,0.397917,0.4005,0.2,0.2
216,'2026/05/01 18:25:17:465',1,0.192188,0.389583,0.427551,0.2,0.2
217,'2026/05/01 18:25:17:482',1,0.160938,0.354167,0.524976,0.2,0.2
218,'2026/05/01 18:25:17:498',1,0.13125,0.29375,0.693397,0.2,0.2
219,'2026/05/01 18:25:17:514',1,0.128125,0.279167,0.145602,0.2,0.2
220,'2026/05/01 18:25:17:530',1,0.126563,0.25625,0.220907,0.2,0.2
221,'2026/05/01 18:25:17:547',1,0.129688,0.2375,0.184391,0.2,0.2
222,'2026/05/01 18:25:17:563',1,0.148438,0.204167,0.4,0.2,0.2
223,'2026/05/01 18:25:17:580',1,0.157813,0.19375,0.156205,0.2,0.2
224,'2026/05/01 18:25:17:596',1,0.19375,0.15625,0.584123,0.2,0.2
225,'2026/05/01 18:25:17:613',1,0.239063,0.1375,0.607289,0.2,0.2
226,'2026/05/01 18:25:17:630',1,0.260938,0.1375,0.28,0.2,0.2
227,'2026/05/01 18:25:17:646',1,0.285937,0.158333,0.377359,0.2,0.2
228,'2026/05/01 18:25:17:663',1,0.29375,0.175,0.18868,0.2,0.2
229,'2026/05/01 18:25:17:680',1,0.301562,0.233333,0.568859,0.2,0.2
230,'2026/05/01 18:25:17:696',1,0.301562,0.26875,0.34,0.2,0.2
231,'2026/05/01 18:25:17:713',1,0.29375,0.291667,0.241661,0.2,0.2
232,'2026/05/01 18:25:17:730',1,0.28125,0.302083,0.18868,0.2,0.2
233,'2026/05/01 18:25:17:746',1,0.273438,0.304167,0.10198,0.2,0.2
234,'2026/05/01 18:25:17:762',1,0.232812,0.29375,0.529528,0.2,0.2
235,'2026/05/01 18:25:17:779',1,0.215625,0.279167,0.260768,0.2,0.2
236,'2026/05/01 18:25:17:796',1,0.167187,0.227083,0.796492,0.2,0.2
237,'2026/05/01 18:25:17:812',1,0.139062,0.170833,0.648999,0.2,0.2
238,'2026/05/01 18:25:17:829',1,0.115625,0.095833,0.78,0.2,0.2
239,'2026/05/01 18:25:17:846',1,0.104687,0.054167,0.423792,0.2,0.2
240,'2026/05/01 18:25:17:862',1,0.103125,0.047917,0.063246,0.2,0.2
241,'2026/05/01 18:25:17:878',1,0.103125,0.04375,0.04,0.2,0.2
242,'2026/05/01 18:25:17:895',1,0.103125,0.041667,0.02,0.2,0.2
243,'2026/05/01 18:25:17:911',1,0.103125,0.041667,0,0.2,0.2
244,'2026/05/01 18:25:17:928',1,0.103125,0.041667,0,0.2,0.2
245,'2026/05/01 18:25:17:945',1,0.109375,0.072917,0.310483,0.2,0.2
246,'2026/05/01 18:25:17:961',1,0.109375,0.172917,0.96,0.2,0.2
247,'2026/05/01 18:25:17:977',1,0.109375,0.210417,0.36,0.2,0.2
248,'2026/05/01 18:25:17:993',1,0.109375,0.310417,0.96,0.2,0.2
249,'2026/05/01 18:25:18:010',1,0.109375,0.364583,0.52,0.2,0.2
250,'2026/05/01 18:25:18:028',1,0.114063,0.39375,0.286356,0.2,0.2
251,'2026/05/01 18:25:18:043',1,0.117188,0.40625,0.126491,0.2,0.2
252,'2026/05/01 18:25:18:059',1,0.126563,0.414583,0.144222,0.2,0.2
253,'2026/05/01 18:25:18:075',1,0.139062,0.414583,0.16,0.2,0.2
254,'2026/05/01 18:25:18:091',1,0.146875,0.410417,0.107703,0.2,0.2
255,'2026/05/01 18:25:18:107',1,0.184375,0.352083,0.737564,0.2,0.2
256,'2026/05/01 18:25:18:124',1,0.207813,0.29375,0.635295,0.2,0.2
257,'2026/05/01 18:25:18:140',1,0.226563,0.220833,0.74,0.2,0.2
258,'2026/05/01 18:25:18:156',1,0.226563,0.204167,0.16,0.2,0.2
259,'2026/05/01 18:25:18:172',1,0.225,0.164583,0.380526,0.2,0.2
260,'2026/05/01 18:25:18:189',1,0.217187,0.14375,0.223607,0.2,0.2
261,'2026/05/01 18:25:18:206',1,0.209375,0.133333,0.141421,0.2,0.2
262,'2026/05/01 18:25:18:222',1,0.198437,0.127083,0.152315,0.2,0.2
263,'2026/05/01 18:25:18:239',1,0.173438,0.13125,0.32249,0.2,0.2
264,'2026/05/01 18:25:18:255',1,0.145313,0.145833,0.386264,0.2,0.2
265,'2026/05/01 18:25:18:272',1,0.098438,0.19375,0.756042,0.2,0.2
266,'2026/05/01 18:25:18:289',1,0.082813,0.210417,0.256125,0.2,0.2
267,'2026/05/01 18:25:18:307',1,0.05,0.254167,0.59397,0.2,0.2
268,'2026/05/01 18:25:18:323',1,0.029687,0.291667,0.444072,0.2,0.2
269,'2026/05/01 18:25:18:340',1,0.023438,0.314583,0.234094,0.2,0.2
270,'2026/05/01 18:25:18:357',1,0.023438,0.347917,0.32,0.2,0.2
271,'2026/05/01 18:25:18:373',1,0.023438,0.35625,0.08,0.2,0.2
272,'2026/05/01 18:25:18:389',1,0.03125,0.379167,0.241661,0.2,0.2
273,'2026/05/01 18:25:18:406',1,0.035937,0.383333,0.072111,0.2,0.2
274,'2026/05/01 18:25:18:422',1,0.070313,0.39375,0.451221,0.2,0.2
275,'2026/05/01 18:25:18:439',1,0.085938,0.389583,0.203961,0.2,0.2
276,'2026/05/01 18:25:18:456',1,0.15,0.360417,0.866487,0.2,0.2
277,'2026/05/01 18:25:18:472',1,0.209375,0.304167,0.932309,0.2,0.2
278,'2026/05/01 18:25:18:489',1,0.228125,0.283333,0.31241,0.2,0.2
279,'2026/05/01 18:25:18:505',1,0.275,0.21875,0.862786,0.2,0.2
280,'2026/05/01 18:25:18:522',1,0.3,0.177083,0.51225,0.2,0.2
281,'2026/05/01 18:25:18:538',1,0.320313,0.120833,0.599333,0.2,0.2
282,'2026/05/01 18:25:18:554',1,0.321875,0.09375,0.260768,0.2,0.2
283,'2026/05/01 18:25:18:571',1,0.314063,0.072917,0.223607,0.2,0.2
284,'2026/05/01 18:25:18:588',1,0.307813,0.0625,0.128062,0.2,0.2
285,'2026/05/01 18:25:18:603',1,0.275,0.04375,0.456946,0.2,0.2
286,'2026/05/01 18:25:18:619',1,0.24375,0.03125,0.417612,0.2,0.2
287,'2026/05/01 18:25:18:635',1,0.1875,0.035417,0.72111,0.2,0.2
288,'2026/05/01 18:25:18:651',1,0.167187,0.041667,0.266833,0.2,0.2
289,'2026/05/01 18:25:18:668',1,0.115625,0.0625,0.689638,0.2,0.2
290,'2026/05/01 18:25:18:684',1,0.096875,0.077083,0.277849,0.2,0.2
291,'2026/05/01 18:25:18:701',1,0.084375,0.102083,0.288444,0.2,0.2
292,'2026/05/01 18:25:18:718',1,0.079687,0.114583,0.134164,0.2,0.2
293,'2026/05/01 18:25:18:735',1,0.073437,0.16875,0.526118,0.2,0.2
294,'2026/05/01 18:25:18:751',1,0.071875,0.214583,0.440454,0.2,0.2
295,'2026/05/01 18:25:18:767',1,0.073437,0.233333,0.181108,0.2,0.2
296,'2026/05/01 18:25:18:784',1,0.085938,0.283333,0.505964,0.2,0.2
297,'2026/05/01 18:25:18:801',1,0.096875,0.310417,0.295296,0.2,0.2
298,'2026/05/01 18:25:18:817',1,0.110937,0.33125,0.269072,0.2,0.2
299,'2026/05/01 18:25:18:833',1,0.117188,0.333333,0.082462,0.2,0.2
300,'2026/05/01 18:25:18:850',1,0.134375,0.333333,0.22,0.2,0.2
301,'2026/05/01 18:25:18:866',1,0.15,0.325,0.215407,0.2,0.2
302,'2026/05/01 18:25:18:884',1,0.167187,0.29375,0.372022,0.2,0.2
303,'2026/05/01 18:25:18:900',1,0.201562,0.222917,0.809938,0.2,0.2
304,'2026/05/01 18:25:18:917',1,0.214062,0.16875,0.544059,0.2,0.2
305,'2026/05/01 18:25:18:933',1,0.21875,0.1125,0.543323,0.2,0.2
306,'2026/05/01 18:25:18:950',1,0.215625,0.097917,0.145602,0.2,0.2
307,'2026/05/01 18:25:18:967',1,0.207813,0.077083,0.223607,0.2,0.2
308,'2026/05/01 18:25:18:982',1,0.196875,0.06875,0.161245,0.2,0.2
309,'2026/05/01 18:25:18:999',1,0.189063,0.06875,0.1,0.2,0.2
310,'2026/05/01 18:25:19:015',1,0.164063,0.085417,0.357771,0.2,0.2
311,'2026/05/01 18:25:19:031',1,0.154687,0.095833,0.156205,0.2,0.2
312,'2026/05/01 18:25:19:047',1,0.128125,0.13125,0.480833,0.2,0.2
313,'2026/05/01 18:25:19:064',1,0.123438,0.139583,0.1,0.2,0.2
314,'2026/05/01 18:25:19:081',1,0.117188,0.16875,0.291204,0.2,0.2
315,'2026/05/01 18:25:19:098',1,0.115625,0.18125,0.121655,0.2,0.2
316,'2026/05/01 18:25:19:114',1,0.11875,0.204167,0.223607,0.2,0.2
317,'2026/05/01 18:25:19:131',1,0.13125,0.227083,0.272029,0.2,0.2
318,'2026/05/01 18:25:19:148',1,0.135937,0.233333,0.084853,0.2,0.2
319,'2026/05/01 18:25:19:166',1,0.153125,0.247917,0.260768,0.2,0.2
320,'2026/05/01 18:25:19:182',1,0.157813,0.25,0.063246,0.2,0.2
321,'2026/05/01 18:25:19:198',1,0.160938,0.25,0.04,0.2,0.2
322,'2026/05/01 18:25:19:215',1,0.160938,0.25,0,0.2,0.2
323,'2026/05/01 18:25:19:230',1,0.1625,0.25,0.02,0.2,0.2
324,'2026/05/01 18:25:19:247',1,0.1625,0.25,0,0.2,0.2
325,'2026/05/01 18:25:19:264',1,0.1625,0.25,0,0.2,0.2
326,'2026/05/01 18:25:19:281',1,0.1625,0.245833,0.04,0.2,0.2
327,'2026/05/01 18:25:19:298',1,0.1625,0.245833,0,0.2,0.2
328,'2026/05/01 18:25:19:315',1,0.1625,0.245833,0,0.2,0.2
329,'2026/05/01 18:25:19:331',1,0.1625,0.245833,0,0.2,0.2
330,'2026/05/01 18:25:19:348',1,0.1625,0.245833,0,0.2,0.2
331,'2026/05/01 18:25:19:364',1,0.1625,0.245833,0,0.2,0.2
332,'2026/05/01 18:25:19:381',1,0.1625,0.245833,0,0.2,0.2
333,'2026/05/01 18:25:19:397',1,0.1625,0.245833,0,0.2,0.2
334,'2026/05/01 18:25:19:414',1,0.1625,0.245833,0,0.2,0.2
335,'2026/05/01 18:25:19:429',1,0.1625,0.245833,0,0.2,0.2
336,'2026/05/01 18:25:19:445',1,0.1625,0.245833,0,0.2,0.2
337,'2026/05/01 18:25:19:461',1,0.1625,0.245833,0,0.2,0.2
338,'2026/05/01 18:25:19:478',1,0.1625,0.245833,0,0.2,0.2
339,'2026/05/01 18:25:19:495',1,0.1625,0.245833,0,0.2,0.2
340,'2026/05/01 18:25:19:510',1,0.1625,0.245833,0,0.2,0.2
341,'2026/05/01 18:25:19:528',1,0.1625,0.245833,0,0.2,0.2
342,'2026/05/01 18:25:19:543',1,0.010937,0.2625,1,0.2,0.2
343,'2026/05/01 18:25:19:560',1,0.010937,0.2625,0,0.2,0.2
344,'2026/05/01 18:25:19:578',1,0.010937,0.2625,0,0.2,0.2
345,'2026/05/01 18:25:19:595',1,0.010937,0.2625,0,0.2,0.2
346,'2026/05/01 18:25:19:611',1,0.010937,0.2625,0,0.2,0.2
347,'2026/05/01 18:25:19:628',1,0.010937,0.2625,0,0.2,0.2
348,'2026/05/01 18:25:19:645',1,0.010937,0.2625,0,0.2,0.2
349,'2026/05/01 18:25:19:661',1,0.010937,0.2625,0,0.2,0.2
350,'2026/05/01 18:25:19:677',1,0.010937,0.2625,0,0.2,0.2
351,'2026/05/01 18:25:19:694',1,0.010937,0.2625,0,0.2,0.2
352,'2026/05/01 18:25:19:712',1,0.010937,0.2625,0,0.2,0.2
353,'2026/05/01 18:25:19:727',1,0.010937,0.2625,0,0.2,0.2
354,'2026/05/01 18:25:19:743',1,0.010937,0.2625,0,0.2,0.2
355,'2026/05/01 18:25:19:759',1,0.010937,0.2625,0,0.2,0.2
356,'2026/05/01 18:25:19:776',1,0.010937,0.2625,0,0.2,0.2
357,'2026/05/01 18:25:19:792',1,0.010937,0.2625,0,0.2,0.2
358,'2026/05/01 18:25:19:808',1,0.010937,0.2625,0,0.2,0.2
359,'2026/05/01 18:25:19:825',1,0.010937,0.2625,0,0.2,0.2
360,'2026/05/01 18:25:19:841',1,0.010937,0.2625,0,0.2,0.2
361,'2026/05/01 18:25:19:858',1,0.010937,0.2625,0,0.2,0.2
362,'2026/05/01 18:25:19:874',1,0.010937,0.2625,0,0.2,0.2
363,'2026/05/01 18:25:19:890',1,0.010937,0.2625,0,0.2,0.2
364,'2026/05/01 18:25:19:906',1,0.010937,0.2625,0,0.2,0.2
365,'2026/05/01 18:25:19:922',1,0.010937,0.2625,0,0.2,0.2
366,'2026/05/01 18:25:19:939',1,0.010937,0.2625,0,0.2,0.2
367,'2026/05/01 18:25:19:955',1,0.010937,0.2625,0,0.2,0.2
368,'2026/05/01 18:25:19:972',1,0.010937,0.2625,0,0.2,0.2
369,'2026/05/01 18:25:19:990',1,0.010937,0.2625,0,0.2,0.2
370,'2026/05/01 18:25:20:006',1,0.010937,0.2625,0,0.2,0.2
371,'2026/05/01 18:25:20:022',1,0.010937,0.2625,0,0.2,0.2
372,'2026/05/01 18:25:20:038',1,0.010937,0.2625,0,0.2,0.2
373,'2026/05/01 18:25:20:054',1,0.010937,0.2625,0,0.2,0.2
374,'2026/05/01 18:25:20:071',1,0.010937,0.2625,0,0.2,0.2
375,'2026/05/01 18:25:20:088',1,0.010937,0.2625,0,0.2,0.2
376,'2026/05/01 18:25:20:103',1,0.010937,0.2625,0,0.2,0.2
377,'2026/05/01 18:25:20:120',1,0.010937,0.2625,0,0.2,0.2
378,'2026/05/01 18:25:20:136',1,0.010937,0.2625,0,0.2,0.2
379,'2026/05/01 18:25:20:153',1,0.010937,0.2625,0,0.2,0.2
380,'2026/05/01 18:25:20:170',1,0.010937,0.2625,0,0.2,0.2
381,'2026/05/01 18:25:20:187',1,0.010937,0.2625,0,0.2,0.2
382,'2026/05/01 18:25:20:208',1,0.010937,0.2625,0,0.2,0.2
383,'2026/05/01 18:25:20:228',1,0.010937,0.2625,0,0.2,0.2
384,'2026/05/01 18:25:20:264',1,0.010937,0.2625,0,0.2,0.2
385,'2026/05/01 18:25:20:298',1,0.010937,0.2625,0,0.2,0.2
386,'2026/05/01 18:25:20:307',1,0.010937,0.2625,0,0.2,0.2
387,'2026/05/01 18:25:20:340',1,0.010937,0.2625,0,0.2,0.2
388,'2026/05/01 18:25:20:370',1,0.010937,0.2625,0,0.2,0.2
389,'2026/05/01 18:25:20:400',1,0.010937,0.2625,0,0.2,0.2
390,'2026/05/01 18:25:38:931',2,0.009375,0.027083,0,0.2,0.8
391,'2026/05/01 18:25:38:962',2,0.009375,0.027083,0,0.2,0.8
392,'2026/05/01 18:25:38:993',2,0.009375,0.027083,0,0.2,0.8
393,'2026/05/01 18:25:39:019',2,0.009375,0.027083,0,0.2,0.8
394,'2026/05/01 18:25:39:052',2,0.009375,0.027083,0,0.2,0.8
395,'2026/05/01 18:25:39:082',2,0.009375,0.027083,0,0.2,0.8
396,'2026/05/01 18:25:39:112',2,0.009375,0.027083,0,0.2,0.8
397,'2026/05/01 18:25:39:142',2,0.009375,0.027083,0,0.2,0.8
398,'2026/05/01 18:25:39:174',2,0.009375,0.027083,0,0.2,0.8
399,'2026/05/01 18:25:39:203',2,0.009375,0.027083,0,0.2,0.8
400,'2026/05/01 18:25:39:233',2,0.009375,0.027083,0,0.2,0.8
401,'2026/05/01 18:25:39:249',2,0.009375,0.027083,0,0.2,0.8
402,'2026/05/01 18:25:39:281',2,0.009375,0.027083,0,0.2,0.8
403,'2026/05/01 18:25:39:297',2,0.009375,0.027083,0,0.2,0.8
404,'2026/05/01 18:25:39:329',2,0.009375,0.027083,0,0.2,0.8
405,'2026/05/01 18:25:39:359',2,0.009375,0.027083,0,0.2,0.8
406,'2026/05/01 18:25:39:388',2,0.009375,0.027083,0,0.2,0.8
407,'2026/05/01 18:25:39:420',2,0.009375,0.027083,0,0.2,0.8
408,'2026/05/01 18:25:39:436',2,0.009375,0.027083,0,0.2,0.8
409,'2026/05/01 18:25:39:467',2,0.009375,0.027083,0,0.2,0.8
410,'2026/05/01 18:25:39:499',2,0.009375,0.027083,0,0.2,0.8
411,'2026/05/01 18:25:39:513',2,0.009375,0.027083,0,0.2,0.8
412,'2026/05/01 18:25:39:545',2,0.009375,0.027083,0,0.2,0.8
413,'2026/05/01 18:25:39:574',2,0.009375,0.027083,0,0.2,0.8
414,'2026/05/01 18:25:39:605',2,0.009375,0.027083,0,0.2,0.8
415,'2026/05/01 18:25:39:639',2,0.009375,0.027083,0,0.2,0.8
416,'2026/05/01 18:25:39:651',2,0.009375,0.027083,0,0.2,0.8
417,'2026/05/01 18:25:39:666',2,0.009375,0.027083,0,0.2,0.8
418,'2026/05/01 18:25:39:696',2,0.009375,0.027083,0,0.2,0.8
419,'2026/05/01 18:25:39:735',2,0.009375,0.027083,0,0.2,0.8
420,'2026/05/01 18:25:39:760',2,0.009375,0.027083,0,0.2,0.8
421,'2026/05/01 18:25:39:790',2,0.009375,0.027083,0,0.2,0.8
422,'2026/05/01 18:25:39:821',2,0.009375,0.027083,0,0.2,0.8
423,'2026/05/01 18:25:39:855',2,0.009375,0.027083,0,0.2,0.8
424,'2026/05/01 18:25:39:866',2,0.009375,0.027083,0,0.2,0.8
425,'2026/05/01 18:25:39:897',2,0.009375,0.027083,0,0.2,0.8
426,'2026/05/01 18:25:39:928',2,0.009375,0.027083,0,0.2,0.8
427,'2026/05/01 18:25:39:959',2,0.009375,0.027083,0,0.2,0.8
428,'2026/05/01 18:25:39:974',2,0.009375,0.027083,0,0.2,0.8
429,'2026/05/01 18:25:40:005',2,0.009375,0.027083,0,0.2,0.8
430,'2026/05/01 18:25:40:035',2,0.009375,0.027083,0,0.2,0.8
431,'2026/05/01 18:25:40:066',2,0.009375,0.027083,0,0.2,0.8
432,'2026/05/01 18:25:40:097',2,0.009375,0.027083,0,0.2,0.8
433,'2026/05/01 18:25:40:129',2,0.009375,0.027083,0,0.2,0.8
434,'2026/05/01 18:25:40:160',2,0.009375,0.027083,0,0.2,0.8
435,'2026/05/01 18:25:40:194',2,0.009375,0.027083,0,0.2,0.8
436,'2026/05/01 18:25:40:219',2,0.009375,0.027083,0,0.2,0.8
437,'2026/05/01 18:25:40:250',2,0.009375,0.027083,0,0.2,0.8
438,'2026/05/01 18:25:40:281',2,0.009375,0.027083,0,0.2,0.8
439,'2026/05/01 18:25:40:310',2,0.009375,0.027083,0,0.2,0.8
440,'2026/05/01 18:25:40:341',2,0.009375,0.027083,0,0.2,0.8
441,'2026/05/01 18:25:40:372',2,0.009375,0.027083,0,0.2,0.8
442,'2026/05/01 18:25:40:402',2,0.009375,0.027083,0,0.2,0.8
443,'2026/05/01 18:25:40:434',2,0.009375,0.027083,0,0.2,0.8
444,'2026/05/01 18:25:40:464',2,0.009375,0.027083,0,0.2,0.8
445,'2026/05/01 18:25:40:481',2,0.009375,0.027083,0,0.2,0.8
446,'2026/05/01 18:25:40:498',2,0.009375,0.027083,0,0.2,0.8
447,'2026/05/01 18:25:40:514',2,0.009375,0.027083,0,0.2,0.8
448,'2026/05/01 18:25:40:530',2,0.009375,0.027083,0,0.2,0.8
449,'2026/05/01 18:25:40:546',2,0.009375,0.027083,0,0.2,0.8
450,'2026/05/01 18:25:40:563',2,0.009375,0.027083,0,0.2,0.8
451,'2026/05/01 18:25:40:579',2,0.009375,0.027083,0,0.2,0.8
452,'2026/05/01 18:25:40:596',2,0.009375,0.027083,0,0.2,0.8
453,'2026/05/01 18:25:40:613',2,0.009375,0.027083,0,0.2,0.8
454,'2026/05/01 18:25:40:630',2,0.009375,0.027083,0,0.2,0.8
455,'2026/05/01 18:25:40:646',2,0.009375,0.027083,0,0.2,0.8
456,'2026/05/01 18:25:40:663',2,0.009375,0.027083,0,0.2,0.8
457,'2026/05/01 18:25:40:679',2,0.009375,0.027083,0,0.2,0.8
458,'2026/05/01 18:25:40:695',2,0.009375,0.027083,0,0.2,0.8
459,'2026/05/01 18:25:40:711',2,0.009375,0.027083,0,0.2,0.8
460,'2026/05/01 18:25:40:728',2,0.009375,0.027083,0,0.2,0.8
461,'2026/05/01 18:25:40:745',2,0.009375,0.027083,0,0.2,0.8
462,'2026/05/01 18:25:40:762',2,0.225,0.997917,1,0.2,0.8
463,'2026/05/01 18:25:40:778',2,0.217187,0.93125,0.647765,0.2,0.8
464,'2026/05/01 18:25:40:795',2,0.21875,0.889583,0.4005,0.2,0.8
465,'2026/05/01 18:25:40:811',2,0.220313,0.883333,0.063246,0.2,0.8
466,'2026/05/01 18:25:40:827',2,0.23125,0.864583,0.228035,0.2,0.8
467,'2026/05/01 18:25:40:843',2,0.24375,0.854167,0.18868,0.2,0.8
468,'2026/05/01 18:25:40:860',2,0.264062,0.84375,0.278568,0.2,0.8
469,'2026/05/01 18:25:40:877',2,0.275,0.84375,0.14,0.2,0.8
470,'2026/05/01 18:25:40:894',2,0.295312,0.845833,0.260768,0.2,0.8
471,'2026/05/01 18:25:40:911',2,0.3,0.845833,0.06,0.2,0.8
472,'2026/05/01 18:25:40:927',2,0.320313,0.852083,0.266833,0.2,0.8
473,'2026/05/01 18:25:40:944',2,0.326562,0.854167,0.082462,0.2,0.8
474,'2026/05/01 18:25:40:960',2,0.326562,0.854167,0,0.2,0.8
475,'2026/05/01 18:25:40:977',2,0.326562,0.854167,0,0.2,0.8
476,'2026/05/01 18:25:40:994',2,0.321875,0.85625,0.063246,0.2,0.8
477,'2026/05/01 18:25:41:009',2,0.275,0.860417,0.601332,0.2,0.8
478,'2026/05/01 18:25:41:026',2,0.253125,0.860417,0.28,0.2,0.8
479,'2026/05/01 18:25:41:041',2,0.173438,0.84375,1,0.2,0.8
480,'2026/05/01 18:25:41:057',2,0.128125,0.822917,0.613514,0.2,0.8
481,'2026/05/01 18:25:41:075',2,0.076563,0.779167,0.782304,0.2,0.8
482,'2026/05/01 18:25:41:090',2,0.067188,0.758333,0.233238,0.2,0.8
483,'2026/05/01 18:25:41:107',2,0.057813,0.71875,0.398497,0.2,0.8
484,'2026/05/01 18:25:41:124',2,0.059375,0.689583,0.280713,0.2,0.8
485,'2026/05/01 18:25:41:140',2,0.070313,0.66875,0.244131,0.2,0.8
486,'2026/05/01 18:25:41:157',2,0.103125,0.63125,0.553173,0.2,0.8
487,'2026/05/01 18:25:41:174',2,0.115625,0.620833,0.18868,0.2,0.8
488,'2026/05/01 18:25:41:189',2,0.167187,0.59375,0.709366,0.2,0.8
489,'2026/05/01 18:25:41:205',2,0.204688,0.583333,0.490306,0.2,0.8
490,'2026/05/01 18:25:41:221',2,0.245312,0.583333,0.52,0.2,0.8
491,'2026/05/01 18:25:41:237',2,0.257813,0.589583,0.17088,0.2,0.8
492,'2026/05/01 18:25:41:254',2,0.28125,0.6125,0.372022,0.2,0.8
493,'2026/05/01 18:25:41:271',2,0.290625,0.633333,0.233238,0.2,0.8
494,'2026/05/01 18:25:41:288',2,0.295312,0.670833,0.364966,0.2,0.8
495,'2026/05/01 18:25:41:303',2,0.29375,0.695833,0.240832,0.2,0.8
496,'2026/05/01 18:25:41:320',2,0.28125,0.722917,0.305287,0.2,0.8
497,'2026/05/01 18:25:41:336',2,0.264062,0.752083,0.35609,0.2,0.8
498,'2026/05/01 18:25:41:356',2,0.228125,0.791667,0.596657,0.2,0.8
499,'2026/05/01 18:25:41:369',2,0.179688,0.810417,0.6456,0.2,0.8
500,'2026/05/01 18:25:41:386',2,0.165625,0.810417,0.18,0.2,0.8
501,'2026/05/01 18:25:41:402',2,0.142188,0.810417,0.3,0.2,0.8
502,'2026/05/01 18:25:41:419',2,0.114063,0.783333,0.444072,0.2,0.8
503,'2026/05/01 18:25:41:435',2,0.1,0.75,0.367151,0.2,0.8
504,'2026/05/01 18:25:41:452',2,0.098438,0.7375,0.121655,0.2,0.8
505,'2026/05/01 18:25:41:469',2,0.098438,0.720833,0.16,0.2,0.8
506,'2026/05/01 18:25:41:485',2,0.098438,0.716667,0.04,0.2,0.8
507,'2026/05/01 18:25:41:501',2,0.107813,0.704167,0.169706,0.2,0.8
508,'2026/05/01 18:25:41:518',2,0.1125,0.704167,0.06,0.2,0.8
509,'2026/05/01 18:25:41:535',2,0.14375,0.69375,0.412311,0.2,0.8
510,'2026/05/01 18:25:41:551',2,0.184375,0.702083,0.526118,0.2,0.8
511,'2026/05/01 18:25:41:568',2,0.198437,0.710417,0.196977,0.2,0.8
512,'2026/05/01 18:25:41:584',2,0.223438,0.752083,0.51225,0.2,0.8
513,'2026/05/01 18:25:41:600',2,0.235938,0.797917,0.468188,0.2,0.8
514,'2026/05/01 18:25:41:617',2,0.242188,0.875,0.744312,0.2,0.8
515,'2026/05/01 18:25:41:634',2,0.242188,0.895833,0.2,0.2,0.8
516,'2026/05/01 18:25:41:649',2,0.232812,0.954167,0.572713,0.2,0.8
517,'2026/05/01 18:25:41:667',2,0.217187,0.985417,0.360555,0.2,0.8
518,'2026/05/01 18:25:41:684',2,0.217187,0.985417,0,0.2,0.8
519,'2026/05/01 18:25:41:699',2,0.217187,0.985417,0,0.2,0.8
520,'2026/05/01 18:25:41:715',2,0.217187,0.985417,0,0.2,0.8
521,'2026/05/01 18:25:41:733',2,0.217187,0.985417,0,0.2,0.8
522,'2026/05/01 18:25:41:749',2,0.032812,0.98125,1,0.2,0.8
523,'2026/05/01 18:25:41:765',2,0.026563,0.9625,0.196977,0.2,0.8
524,'2026/05/01 18:25:41:782',2,0.023438,0.910417,0.501597,0.2,0.8
525,'2026/05/01 18:25:41:798',2,0.026563,0.8875,0.223607,0.2,0.8
526,'2026/05/01 18:25:41:814',2,0.034375,0.86875,0.205913,0.2,0.8
527,'2026/05/01 18:25:41:830',2,0.05,0.84375,0.31241,0.2,0.8
528,'2026/05/01 18:25:41:847',2,0.092188,0.80625,0.648999,0.2,0.8
529,'2026/05/01 18:25:41:863',2,0.153125,0.766667,0.86764,0.2,0.8
530,'2026/05/01 18:25:41:880',2,0.175,0.758333,0.291204,0.2,0.8
531,'2026/05/01 18:25:41:896',2,0.240625,0.7375,0.863481,0.2,0.8
532,'2026/05/01 18:25:41:913',2,0.292188,0.735417,0.660303,0.2,0.8
533,'2026/05/01 18:25:41:930',2,0.353125,0.74375,0.784092,0.2,0.8
534,'2026/05/01 18:25:41:946',2,0.364062,0.752083,0.161245,0.2,0.8
535,'2026/05/01 18:25:41:963',2,0.382813,0.775,0.325576,0.2,0.8
536,'2026/05/01 18:25:41:978',2,0.390625,0.789583,0.172047,0.2,0.8
537,'2026/05/01 18:25:41:995',2,0.392188,0.802083,0.121655,0.2,0.8
538,'2026/05/01 18:25:42:011',2,0.389062,0.820833,0.184391,0.2,0.8
539,'2026/05/01 18:25:42:028',2,0.385938,0.827083,0.072111,0.2,0.8
540,'2026/05/01 18:25:42:044',2,0.36875,0.845833,0.284253,0.2,0.8
541,'2026/05/01 18:25:42:061',2,0.354688,0.852083,0.189737,0.2,0.8
542,'2026/05/01 18:25:42:078',2,0.309375,0.858333,0.583095,0.2,0.8
543,'2026/05/01 18:25:42:095',2,0.26875,0.85,0.526118,0.2,0.8
544,'2026/05/01 18:25:42:111',2,0.21875,0.804167,0.77666,0.2,0.8
545,'2026/05/01 18:25:42:128',2,0.185937,0.754167,0.637809,0.2,0.8
546,'2026/05/01 18:25:42:145',2,0.182812,0.741667,0.126491,0.2,0.8
547,'2026/05/01 18:25:42:161',2,0.178125,0.714583,0.266833,0.2,0.8
548,'2026/05/01 18:25:42:177',2,0.178125,0.704167,0.1,0.2,0.8
549,'2026/05/01 18:25:42:194',2,0.179688,0.691667,0.121655,0.2,0.8
550,'2026/05/01 18:25:42:211',2,0.18125,0.689583,0.028284,0.2,0.8
551,'2026/05/01 18:25:42:227',2,0.195313,0.679167,0.205913,0.2,0.8
552,'2026/05/01 18:25:42:243',2,0.214062,0.670833,0.252982,0.2,0.8
553,'2026/05/01 18:25:42:260',2,0.259375,0.664583,0.583095,0.2,0.8
554,'2026/05/01 18:25:42:276',2,0.314063,0.68125,0.718053,0.2,0.8
555,'2026/05/01 18:25:42:292',2,0.328125,0.69375,0.216333,0.2,0.8
556,'2026/05/01 18:25:42:309',2,0.357812,0.7375,0.566392,0.2,0.8
557,'2026/05/01 18:25:42:326',2,0.364062,0.75625,0.196977,0.2,0.8
558,'2026/05/01 18:25:42:342',2,0.373437,0.814583,0.572713,0.2,0.8
559,'2026/05/01 18:25:42:358',2,0.373437,0.84375,0.28,0.2,0.8
560,'2026/05/01 18:25:42:375',2,0.359375,0.885417,0.438634,0.2,0.8
561,'2026/05/01 18:25:42:391',2,0.35,0.897917,0.169706,0.2,0.8
562,'2026/05/01 18:25:42:407',2,0.3125,0.925,0.545894,0.2,0.8
563,'2026/05/01 18:25:42:423',2,0.253125,0.933333,0.764199,0.2,0.8
564,'2026/05/01 18:25:42:440',2,0.210938,0.920833,0.553173,0.2,0.8
565,'2026/05/01 18:25:42:455',2,0.153125,0.877083,0.850882,0.2,0.8
566,'2026/05/01 18:25:42:471',2,0.139062,0.864583,0.216333,0.2,0.8
567,'2026/05/01 18:25:42:488',2,0.110937,0.816667,0.584123,0.2,0.8
568,'2026/05/01 18:25:42:505',2,0.10625,0.802083,0.152315,0.2,0.8
569,'2026/05/01 18:25:42:523',2,0.101563,0.764583,0.364966,0.2,0.8
570,'2026/05/01 18:25:42:540',2,0.104687,0.7375,0.263059,0.2,0.8
571,'2026/05/01 18:25:42:555',2,0.10625,0.727083,0.10198,0.2,0.8
572,'2026/05/01 18:25:42:572',2,0.117188,0.714583,0.184391,0.2,0.8
573,'2026/05/01 18:25:42:589',2,0.125,0.708333,0.116619,0.2,0.8
574,'2026/05/01 18:25:42:608',2,0.154687,0.691667,0.412311,0.2,0.8
575,'2026/05/01 18:25:42:624',2,0.182812,0.6875,0.362215,0.2,0.8
576,'2026/05/01 18:25:42:641',2,0.195313,0.697917,0.18868,0.2,0.8
577,'2026/05/01 18:25:42:656',2,0.203125,0.725,0.278568,0.2,0.8
578,'2026/05/01 18:25:42:672',2,0.201562,0.754167,0.280713,0.2,0.8
579,'2026/05/01 18:25:42:688',2,0.198437,0.775,0.203961,0.2,0.8
580,'2026/05/01 18:25:42:705',2,0.18125,0.825,0.528015,0.2,0.8
581,'2026/05/01 18:25:42:720',2,0.154687,0.866667,0.524976,0.2,0.8
582,'2026/05/01 18:25:42:737',2,0.1375,0.877083,0.241661,0.2,0.8
583,'2026/05/01 18:25:42:754',2,0.098438,0.895833,0.531413,0.2,0.8
584,'2026/05/01 18:25:42:770',2,0.076563,0.895833,0.28,0.2,0.8
585,'2026/05/01 18:25:42:786',2,0.051562,0.883333,0.34176,0.2,0.8
586,'2026/05/01 18:25:42:803',2,0.046875,0.877083,0.084853,0.2,0.8
587,'2026/05/01 18:25:42:821',2,0.034375,0.854167,0.272029,0.2,0.8
588,'2026/05/01 18:25:42:836',2,0.032812,0.835417,0.181108,0.2,0.8
589,'2026/05/01 18:25:42:852',2,0.035937,0.81875,0.164924,0.2,0.8
590,'2026/05/01 18:25:42:869',2,0.042188,0.804167,0.161245,0.2,0.8
591,'2026/05/01 18:25:42:886',2,0.046875,0.797917,0.084853,0.2,0.8
592,'2026/05/01 18:25:42:902',2,0.071875,0.779167,0.367151,0.2,0.8
593,'2026/05/01 18:25:42:919',2,0.096875,0.764583,0.349285,0.2,0.8
594,'2026/05/01 18:25:42:936',2,0.157813,0.745833,0.8005,0.2,0.8
595,'2026/05/01 18:25:42:951',2,0.179688,0.74375,0.280713,0.2,0.8
596,'2026/05/01 18:25:42:968',2,0.2375,0.745833,0.74027,0.2,0.8
597,'2026/05/01 18:25:42:985',2,0.2625,0.764583,0.367151,0.2,0.8
598,'2026/05/01 18:25:43:001',2,0.28125,0.802083,0.432666,0.2,0.8
599,'2026/05/01 18:25:43:017',2,0.282813,0.8125,0.10198,0.2,0.8
600,'2026/05/01 18:25:43:037',2,0.284375,0.833333,0.200998,0.2,0.8
601,'2026/05/01 18:25:43:050',2,0.278125,0.85,0.178885,0.2,0.8
602,'2026/05/01 18:25:43:066',2,0.271875,0.854167,0.089443,0.2,0.8
603,'2026/05/01 18:25:43:083',2,0.267188,0.85625,0.063246,0.2,0.8
604,'2026/05/01 18:25:43:098',2,0.220313,0.833333,0.639062,0.2,0.8
605,'2026/05/01 18:25:43:115',2,0.192188,0.80625,0.444072,0.2,0.8
606,'2026/05/01 18:25:43:131',2,0.176563,0.789583,0.256125,0.2,0.8
607,'2026/05/01 18:25:43:147',2,0.139062,0.729167,0.752861,0.2,0.8
608,'2026/05/01 18:25:43:164',2,0.125,0.6875,0.438634,0.2,0.8
609,'2026/05/01 18:25:43:180',2,0.11875,0.65,0.368782,0.2,0.8
610,'2026/05/01 18:25:43:196',2,0.11875,0.639583,0.1,0.2,0.8
611,'2026/05/01 18:25:43:213',2,0.11875,0.633333,0.06,0.2,0.8
612,'2026/05/01 18:25:43:230',2,0.11875,0.63125,0.02,0.2,0.8
613,'2026/05/01 18:25:43:245',2,0.11875,0.629167,0.02,0.2,0.8
614,'2026/05/01 18:25:43:263',2,0.129688,0.625,0.145602,0.2,0.8
615,'2026/05/01 18:25:43:278',2,0.148438,0.625,0.24,0.2,0.8
616,'2026/05/01 18:25:43:295',2,0.160938,0.639583,0.212603,0.2,0.8
617,'2026/05/01 18:25:43:313',2,0.173438,0.68125,0.430813,0.2,0.8
618,'2026/05/01 18:25:43:328',2,0.176563,0.7,0.184391,0.2,0.8
619,'2026/05/01 18:25:43:345',2,0.178125,0.741667,0.4005,0.2,0.8
620,'2026/05/01 18:25:43:361',2,0.16875,0.789583,0.475395,0.2,0.8
621,'2026/05/01 18:25:43:378',2,0.14375,0.858333,0.733485,0.2,0.8
622,'2026/05/01 18:25:43:394',2,0.134375,0.875,0.2,0.2,0.8
623,'2026/05/01 18:25:43:411',2,0.098438,0.9125,0.584123,0.2,0.8
624,'2026/05/01 18:25:43:428',2,0.078125,0.920833,0.272029,0.2,0.8
625,'2026/05/01 18:25:43:447',2,0.04375,0.91875,0.440454,0.2,0.8
626,'2026/05/01 18:25:43:463',2,0.015625,0.897917,0.411825,0.2,0.8
627,'2026/05/01 18:25:43:480',2,0.007813,0.872917,0.26,0.2,0.8
628,'2026/05/01 18:25:43:496',2,0.00625,0.845833,0.260768,0.2,0.8
629,'2026/05/01 18:25:43:512',2,0.00625,0.841667,0.04,0.2,0.8
630,'2026/05/01 18:25:43:529',2,0.017188,0.814583,0.295296,0.2,0.8
631,'2026/05/01 18:25:43:547',2,0.021875,0.80625,0.1,0.2,0.8
632,'2026/05/01 18:25:43:562',2,0.057813,0.770833,0.572014,0.2,0.8
633,'2026/05/01 18:25:43:578',2,0.090625,0.75,0.465188,0.2,0.8
634,'2026/05/01 18:25:43:594',2,0.160938,0.7125,0.96933,0.2,0.8
635,'2026/05/01 18:25:43:611',2,0.185937,0.702083,0.335261,0.2,0.8
636,'2026/05/01 18:25:43:627',2,0.257813,0.7,0.920217,0.2,0.8
637,'2026/05/01 18:25:43:644',2,0.314063,0.727083,0.765506,0.2,0.8
638,'2026/05/01 18:25:43:660',2,0.339063,0.758333,0.438634,0.2,0.8
639,'2026/05/01 18:25:43:676',2,0.354688,0.814583,0.575847,0.2,0.8
640,'2026/05/01 18:25:43:692',2,0.35625,0.83125,0.161245,0.2,0.8
641,'2026/05/01 18:25:43:709',2,0.351563,0.883333,0.503587,0.2,0.8
642,'2026/05/01 18:25:43:725',2,0.346875,0.897917,0.152315,0.2,0.8
643,'2026/05/01 18:25:43:741',2,0.321875,0.952083,0.610574,0.2,0.8
644,'2026/05/01 18:25:43:757',2,0.3,0.98125,0.39598,0.2,0.8
645,'2026/05/01 18:25:43:775',2,0.285937,0.9875,0.189737,0.2,0.8
646,'2026/05/01 18:25:43:791',2,0.285937,0.9875,0,0.2,0.8
647,'2026/05/01 18:25:43:809',2,0.196875,0.995833,1,0.2,0.8
648,'2026/05/01 18:25:43:825',2,0.14375,0.947917,0.820975,0.2,0.8
649,'2026/05/01 18:25:43:842',2,0.115625,0.897917,0.6,0.2,0.8
650,'2026/05/01 18:25:43:858',2,0.096875,0.822917,0.758947,0.2,0.8
651,'2026/05/01 18:25:43:875',2,0.096875,0.785417,0.36,0.2,0.8
652,'2026/05/01 18:25:43:891',2,0.1,0.754167,0.302655,0.2,0.8
653,'2026/05/01 18:25:43:907',2,0.101563,0.745833,0.082462,0.2,0.8
654,'2026/05/01 18:25:43:924',2,0.107813,0.733333,0.144222,0.2,0.8
655,'2026/05/01 18:25:43:941',2,0.117188,0.725,0.144222,0.2,0.8
656,'2026/05/01 18:25:43:958',2,0.135937,0.7125,0.268328,0.2,0.8
657,'2026/05/01 18:25:43:974',2,0.146875,0.708333,0.145602,0.2,0.8
658,'2026/05/01 18:25:43:990',2,0.179688,0.70625,0.420476,0.2,0.8
659,'2026/05/01 18:25:44:007',2,0.192188,0.708333,0.161245,0.2,0.8
660,'2026/05/01 18:25:44:022',2,0.203125,0.720833,0.184391,0.2,0.8
661,'2026/05/01 18:25:44:039',2,0.20625,0.725,0.056569,0.2,0.8
662,'2026/05/01 18:25:44:055',2,0.2125,0.739583,0.161245,0.2,0.8
663,'2026/05/01 18:25:44:071',2,0.217187,0.75625,0.17088,0.2,0.8
664,'2026/05/01 18:25:44:087',2,0.217187,0.75625,0,0.2,0.8
665,'2026/05/01 18:25:44:103',2,0.217187,0.75625,0,0.2,0.8
666,'2026/05/01 18:25:44:120',2,0.217187,0.75625,0,0.2,0.8
667,'2026/05/01 18:25:44:136',2,0.217187,0.75625,0,0.2,0.8
668,'2026/05/01 18:25:44:152',2,0.217187,0.75625,0,0.2,0.8
669,'2026/05/01 18:25:44:168',2,0.217187,0.75625,0,0.2,0.8
670,'2026/05/01 18:25:44:184',2,0.217187,0.75625,0,0.2,0.8
671,'2026/05/01 18:25:44:201',2,0.217187,0.75625,0,0.2,0.8
672,'2026/05/01 18:25:44:218',2,0.217187,0.75625,0,0.2,0.8
673,'2026/05/01 18:25:44:234',2,0.217187,0.75625,0,0.2,0.8
674,'2026/05/01 18:25:44:251',2,0.217187,0.75625,0,0.2,0.8
675,'2026/05/01 18:25:44:268',2,0.226563,0.764583,0.144222,0.2,0.8
676,'2026/05/01 18:25:44:284',2,0.25,0.789583,0.384187,0.2,0.8
677,'2026/05/01 18:25:44:301',2,0.25625,0.8,0.128062,0.2,0.8
678,'2026/05/01 18:25:44:318',2,0.270312,0.835417,0.384708,0.2,0.8
679,'2026/05/01 18:25:44:334',2,0.276563,0.85625,0.215407,0.2,0.8
680,'2026/05/01 18:25:44:350',2,0.278125,0.877083,0.200998,0.2,0.8
681,'2026/05/01 18:25:44:367',2,0.278125,0.885417,0.08,0.2,0.8
682,'2026/05/01 18:25:44:385',2,0.267188,0.904167,0.228035,0.2,0.8
683,'2026/05/01 18:25:44:400',2,0.242188,0.922917,0.367151,0.2,0.8
684,'2026/05/01 18:25:44:417',2,0.221875,0.925,0.260768,0.2,0.8
685,'2026/05/01 18:25:44:433',2,0.2,0.9125,0.304631,0.2,0.8
686,'2026/05/01 18:25:44:450',2,0.176563,0.895833,0.34,0.2,0.8
687,'2026/05/01 18:25:44:467',2,0.145313,0.85625,0.551725,0.2,0.8
688,'2026/05/01 18:25:44:483',2,0.135937,0.8375,0.216333,0.2,0.8
689,'2026/05/01 18:25:44:500',2,0.110937,0.783333,0.610574,0.2,0.8
690,'2026/05/01 18:25:44:516',2,0.101563,0.739583,0.436807,0.2,0.8
691,'2026/05/01 18:25:44:533',2,0.101563,0.722917,0.16,0.2,0.8
692,'2026/05/01 18:25:44:549',2,0.117188,0.691667,0.360555,0.2,0.8
693,'2026/05/01 18:25:44:565',2,0.125,0.683333,0.128062,0.2,0.8
694,'2026/05/01 18:25:44:581',2,0.164063,0.660417,0.54626,0.2,0.8
695,'2026/05/01 18:25:44:598',2,0.179688,0.654167,0.208806,0.2,0.8
696,'2026/05/01 18:25:44:615',2,0.229687,0.654167,0.64,0.2,0.8
697,'2026/05/01 18:25:44:631',2,0.259375,0.675,0.429418,0.2,0.8
698,'2026/05/01 18:25:44:648',2,0.28125,0.714583,0.472017,0.2,0.8
699,'2026/05/01 18:25:44:665',2,0.282813,0.764583,0.480416,0.2,0.8
700,'2026/05/01 18:25:44:681',2,0.279687,0.785417,0.203961,0.2,0.8
701,'2026/05/01 18:25:44:697',2,0.257813,0.839583,0.590593,0.2,0.8
702,'2026/05/01 18:25:44:713',2,0.246875,0.85625,0.212603,0.2,0.8
703,'2026/05/01 18:25:44:730',2,0.209375,0.89375,0.6,0.2,0.8
704,'2026/05/01 18:25:44:747',2,0.157813,0.90625,0.67082,0.2,0.8
705,'2026/05/01 18:25:44:763',2,0.126563,0.908333,0.4005,0.2,0.8
706,'2026/05/01 18:25:44:780',2,0.092188,0.891667,0.468188,0.2,0.8
707,'2026/05/01 18:25:44:797',2,0.0875,0.885417,0.084853,0.2,0.8
708,'2026/05/01 18:25:44:814',2,0.079687,0.8625,0.241661,0.2,0.8
709,'2026/05/01 18:25:44:830',2,0.082813,0.829167,0.32249,0.2,0.8
710,'2026/05/01 18:25:44:846',2,0.0875,0.820833,0.1,0.2,0.8
711,'2026/05/01 18:25:44:863',2,0.109375,0.783333,0.45607,0.2,0.8
712,'2026/05/01 18:25:44:879',2,0.134375,0.760417,0.38833,0.2,0.8
713,'2026/05/01 18:25:44:896',2,0.1875,0.75,0.687314,0.2,0.8
714,'2026/05/01 18:25:44:912',2,0.209375,0.75,0.28,0.2,0.8
715,'2026/05/01 18:25:44:929',2,0.265625,0.770833,0.747262,0.2,0.8
716,'2026/05/01 18:25:44:945',2,0.290625,0.80625,0.466905,0.2,0.8
717,'2026/05/01 18:25:44:962',2,0.314063,0.889583,0.8544,0.2,0.8
718,'2026/05/01 18:25:44:978',2,0.320313,0.95625,0.644981,0.2,0.8
719,'2026/05/01 18:25:44:995',2,0.320313,0.972917,0.16,0.2,0.8
720,'2026/05/01 18:25:45:013',2,0.314063,0.989583,0.178885,0.2,0.8
721,'2026/05/01 18:25:45:028',2,0.314063,0.989583,0,0.2,0.8
722,'2026/05/01 18:25:45:045',2,0.314063,0.989583,0,0.2,0.8
723,'2026/05/01 18:25:45:061',2,0.314063,0.989583,0,0.2,0.8
724,'2026/05/01 18:25:45:077',2,0.314063,0.989583,0,0.2,0.8
725,'2026/05/01 18:25:45:093',2,0.154687,0.997917,1,0.2,0.8
726,'2026/05/01 18:25:45:110',2,0.142188,0.979167,0.240832,0.2,0.8
727,'2026/05/01 18:25:45:127',2,0.11875,0.9125,0.706824,0.2,0.8
728,'2026/05/01 18:25:45:144',2,0.115625,0.879167,0.32249,0.2,0.8
729,'2026/05/01 18:25:45:161',2,0.120312,0.841667,0.364966,0.2,0.8
730,'2026/05/01 18:25:45:179',2,0.125,0.83125,0.116619,0.2,0.8
731,'2026/05/01 18:25:45:194',2,0.140625,0.80625,0.31241,0.2,0.8
732,'2026/05/01 18:25:45:211',2,0.159375,0.795833,0.26,0.2,0.8
733,'2026/05/01 18:25:45:228',2,0.2,0.7875,0.526118,0.2,0.8
734,'2026/05/01 18:25:45:244',2,0.245312,0.802083,0.596657,0.2,0.8
735,'2026/05/01 18:25:45:260',2,0.257813,0.810417,0.178885,0.2,0.8
736,'2026/05/01 18:25:45:276',2,0.271875,0.85,0.420476,0.2,0.8
737,'2026/05/01 18:25:45:293',2,0.273438,0.864583,0.141421,0.2,0.8
738,'2026/05/01 18:25:45:310',2,0.275,0.908333,0.420476,0.2,0.8
739,'2026/05/01 18:25:45:326',2,0.267188,0.9375,0.297321,0.2,0.8
740,'2026/05/01 18:25:45:344',2,0.25,0.96875,0.372022,0.2,0.8
741,'2026/05/01 18:25:45:358',2,0.225,0.989583,0.377359,0.2,0.8
742,'2026/05/01 18:25:45:375',2,0.214062,0.99375,0.145602,0.2,0.8
743,'2026/05/01 18:25:45:390',2,0.179688,0.970833,0.491935,0.2,0.8
744,'2026/05/01 18:25:45:408',2,0.154687,0.935417,0.466905,0.2,0.8
745,'2026/05/01 18:25:45:424',2,0.132813,0.860417,0.772528,0.2,0.8
746,'2026/05/01 18:25:45:440',2,0.128125,0.8375,0.228035,0.2,0.8
747,'2026/05/01 18:25:45:457',2,0.126563,0.8,0.360555,0.2,0.8
748,'2026/05/01 18:25:45:474',2,0.139062,0.754167,0.468188,0.2,0.8
749,'2026/05/01 18:25:45:490',2,0.165625,0.720833,0.466905,0.2,0.8
750,'2026/05/01 18:25:45:507',2,0.178125,0.714583,0.17088,0.2,0.8
751,'2026/05/01 18:25:45:524',2,0.223438,0.691667,0.620322,0.2,0.8
752,'2026/05/01 18:25:45:540',2,0.257813,0.691667,0.44,0.2,0.8
753,'2026/05/01 18:25:45:558',2,0.307813,0.7125,0.670522,0.2,0.8
754,'2026/05/01 18:25:45:574',2,0.315625,0.71875,0.116619,0.2,0.8
755,'2026/05/01 18:25:45:589',2,0.3375,0.75625,0.45607,0.2,0.8
756,'2026/05/01 18:25:45:606',2,0.342187,0.8,0.424264,0.2,0.8
757,'2026/05/01 18:25:45:623',2,0.340625,0.86875,0.660303,0.2,0.8
758,'2026/05/01 18:25:45:638',2,0.33125,0.910417,0.417612,0.2,0.8
759,'2026/05/01 18:25:45:654',2,0.328125,0.922917,0.126491,0.2,0.8
760,'2026/05/01 18:25:45:671',2,0.315625,0.941667,0.240832,0.2,0.8
761,'2026/05/01 18:25:45:688',2,0.30625,0.952083,0.156205,0.2,0.8
762,'2026/05/01 18:25:45:705',2,0.303125,0.954167,0.044721,0.2,0.8
763,'2026/05/01 18:25:45:722',2,0.303125,0.954167,0,0.2,0.8
764,'2026/05/01 18:25:45:739',2,0.304688,0.945833,0.082462,0.2,0.8
765,'2026/05/01 18:25:45:755',2,0.314063,0.93125,0.184391,0.2,0.8
766,'2026/05/01 18:25:45:772',2,0.3375,0.9125,0.349857,0.2,0.8
767,'2026/05/01 18:25:45:789',2,0.34375,0.908333,0.089443,0.2,0.8
768,'2026/05/01 18:25:45:805',2,0.346875,0.908333,0.04,0.2,0.8
769,'2026/05/01 18:25:45:822',2,0.346875,0.908333,0,0.2,0.8
770,'2026/05/01 18:25:45:838',2,0.346875,0.908333,0,0.2,0.8
771,'2026/05/01 18:25:45:855',2,0.346875,0.908333,0,0.2,0.8
772,'2026/05/01 18:25:45:871',2,0.340625,0.90625,0.082462,0.2,0.8
773,'2026/05/01 18:25:45:887',2,0.325,0.897917,0.215407,0.2,0.8
774,'2026/05/01 18:25:45:904',2,0.301562,0.885417,0.32311,0.2,0.8
775,'2026/05/01 18:25:45:919',2,0.273438,0.864583,0.411825,0.2,0.8
776,'2026/05/01 18:25:45:936',2,0.210938,0.820833,0.903549,0.2,0.8
777,'2026/05/01 18:25:45:952',2,0.179688,0.795833,0.466476,0.2,0.8
778,'2026/05/01 18:25:45:968',2,0.064062,0.720833,1,0.2,0.8
779,'2026/05/01 18:25:45:985',2,0.064062,0.720833,0,0.2,0.8
780,'2026/05/01 18:25:46:001',2,0.064062,0.720833,0,0.2,0.8
781,'2026/05/01 18:25:46:018',2,0.064062,0.720833,0,0.2,0.8
782,'2026/05/01 18:25:46:034',2,0.064062,0.720833,0,0.2,0.8
783,'2026/05/01 18:25:46:050',2,0.064062,0.720833,0,0.2,0.8
784,'2026/05/01 18:25:46:066',2,0.064062,0.720833,0,0.2,0.8
785,'2026/05/01 18:25:46:084',2,0.064062,0.720833,0,0.2,0.8
786,'2026/05/01 18:25:46:099',2,0.064062,0.720833,0,0.2,0.8
787,'2026/05/01 18:25:46:116',2,0.064062,0.720833,0,0.2,0.8
788,'2026/05/01 18:25:46:131',2,0.064062,0.720833,0,0.2,0.8
789,'2026/05/01 18:25:46:148',2,0.064062,0.720833,0,0.2,0.8
790,'2026/05/01 18:25:46:164',2,0.064062,0.720833,0,0.2,0.8
791,'2026/05/01 18:25:46:180',2,0.064062,0.720833,0,0.2,0.8
792,'2026/05/01 18:25:46:196',2,0.064062,0.720833,0,0.2,0.8
793,'2026/05/01 18:25:46:213',2,0.064062,0.720833,0,0.2,0.8
794,'2026/05/01 18:25:46:230',2,0.064062,0.720833,0,0.2,0.8
795,'2026/05/01 18:25:46:247',2,0.064062,0.720833,0,0.2,0.8
796,'2026/05/01 18:25:46:263',2,0.064062,0.720833,0,0.2,0.8
797,'2026/05/01 18:25:46:279',2,0.064062,0.720833,0,0.2,0.8
798,'2026/05/01 18:25:46:296',2,0.064062,0.720833,0,0.2,0.8
799,'2026/05/01 18:25:46:312',2,0.064062,0.720833,0,0.2,0.8
800,'2026/05/01 18:25:46:329',2,0.064062,0.720833,0,0.2,0.8
801,'2026/05/01 18:25:46:345',2,0.064062,0.720833,0,0.2,0.8
802,'2026/05/01 18:25:46:362',2,0.064062,0.720833,0,0.2,0.8
803,'2026/05/01 18:25:46:378',2,0.064062,0.720833,0,0.2,0.8
804,'2026/05/01 18:25:46:395',2,0.064062,0.720833,0,0.2,0.8
805,'2026/05/01 18:25:46:411',2,0.064062,0.720833,0,0.2,0.8
806,'2026/05/01 18:25:46:427',2,0.064062,0.720833,0,0.2,0.8
807,'2026/05/01 18:25:46:444',2,0.064062,0.720833,0,0.2,0.8
808,'2026/05/01 18:25:46:460',2,0.064062,0.720833,0,0.2,0.8
809,'2026/05/01 18:25:46:476',2,0.064062,0.720833,0,0.2,0.8
810,'2026/05/01 18:25:46:492',2,0.064062,0.720833,0,0.2,0.8
811,'2026/05/01 18:25:46:509',2,0.064062,0.720833,0,0.2,0.8
812,'2026/05/01 18:25:46:525',2,0.064062,0.720833,0,0.2,0.8
813,'2026/05/01 18:25:46:542',2,0.064062,0.720833,0,0.2,0.8
814,'2026/05/01 18:25:46:559',2,0.064062,0.720833,0,0.2,0.8
815,'2026/05/01 18:25:46:577',2,0.064062,0.720833,0,0.2,0.8
816,'2026/05/01 18:25:46:593',2,0.064062,0.720833,0,0.2,0.8
817,'2026/05/01 18:25:46:610',2,0.064062,0.720833,0,0.2,0.8
818,'2026/05/01 18:25:46:626',2,0.064062,0.720833,0,0.2,0.8
819,'2026/05/01 18:25:46:642',2,0.064062,0.720833,0,0.2,0.8
820,'2026/05/01 18:25:46:658',2,0.064062,0.720833,0,0.2,0.8
821,'2026/05/01 18:25:46:675',2,0.064062,0.720833,0,0.2,0.8
822,'2026/05/01 18:25:46:691',2,0.064062,0.720833,0,0.2,0.8
823,'2026/05/01 18:25:46:717',2,0.064062,0.720833,0,0.2,0.8
824,'2026/05/01 18:25:46:747',2,0.064062,0.720833,0,0.2,0.8
825,'2026/05/01 18:25:46:783',2,0.064062,0.720833,0,0.2,0.8
826,'2026/05/01 18:25:46:812',2,0.064062,0.720833,0,0.2,0.8
827,'2026/05/01 18:25:46:842',2,0.064062,0.720833,0,0.2,0.8
828,'2026/05/01 18:25:46:875',2,0.064062,0.720833,0,0.2,0.8
829,'2026/05/01 18:25:46:905',2,0.064062,0.720833,0,0.2,0.8
830,'2026/05/01 18:25:53:722',3,0.064062,0.720833,0,0.8,0.8
831,'2026/05/01 18:25:53:754',3,0.064062,0.720833,0,0.8,0.8
832,'2026/05/01 18:25:53:785',3,0.064062,0.720833,0,0.8,0.8
833,'2026/05/01 18:25:53:817',3,0.064062,0.720833,0,0.8,0.8
834,'2026/05/01 18:25:53:849',3,0.064062,0.720833,0,0.8,0.8
835,'2026/05/01 18:25:53:879',3,0.064062,0.720833,0,0.8,0.8
836,'2026/05/01 18:25:53:910',3,0.064062,0.720833,0,0.8,0.8
837,'2026/05/01 18:25:53:927',3,0.064062,0.720833,0,0.8,0.8
838,'2026/05/01 18:25:53:956',3,0.064062,0.720833,0,0.8,0.8
839,'2026/05/01 18:25:53:977',3,0.064062,0.720833,0,0.8,0.8
840,'2026/05/01 18:25:54:005',3,0.064062,0.720833,0,0.8,0.8
841,'2026/05/01 18:25:54:034',3,0.064062,0.720833,0,0.8,0.8
842,'2026/05/01 18:25:54:065',3,0.064062,0.720833,0,0.8,0.8
843,'2026/05/01 18:25:54:097',3,0.064062,0.720833,0,0.8,0.8
844,'2026/05/01 18:25:54:128',3,0.064062,0.720833,0,0.8,0.8
845,'2026/05/01 18:25:54:145',3,0.064062,0.720833,0,0.8,0.8
846,'2026/05/01 18:25:54:176',3,0.064062,0.720833,0,0.8,0.8
847,'2026/05/01 18:25:54:206',3,0.064062,0.720833,0,0.8,0.8
848,'2026/05/01 18:25:54:236',3,0.064062,0.720833,0,0.8,0.8
849,'2026/05/01 18:25:54:268',3,0.064062,0.720833,0,0.8,0.8
850,'2026/05/01 18:25:54:301',3,0.064062,0.720833,0,0.8,0.8
851,'2026/05/01 18:25:54:316',3,0.064062,0.720833,0,0.8,0.8
852,'2026/05/01 18:25:54:353',3,0.064062,0.720833,0,0.8,0.8
853,'2026/05/01 18:25:54:379',3,0.064062,0.720833,0,0.8,0.8
854,'2026/05/01 18:25:54:412',3,0.064062,0.720833,0,0.8,0.8
855,'2026/05/01 18:25:54:425',3,0.064062,0.720833,0,0.8,0.8
856,'2026/05/01 18:25:54:458',3,0.064062,0.720833,0,0.8,0.8
857,'2026/05/01 18:25:54:489',3,0.064062,0.720833,0,0.8,0.8
858,'2026/05/01 18:25:54:519',3,0.064062,0.720833,0,0.8,0.8
859,'2026/05/01 18:25:54:552',3,0.064062,0.720833,0,0.8,0.8
860,'2026/05/01 18:25:54:584',3,0.064062,0.720833,0,0.8,0.8
861,'2026/05/01 18:25:54:597',3,0.064062,0.720833,0,0.8,0.8
862,'2026/05/01 18:25:54:631',3,0.064062,0.720833,0,0.8,0.8
863,'2026/05/01 18:25:54:645',3,0.064062,0.720833,0,0.8,0.8
864,'2026/05/01 18:25:54:678',3,0.064062,0.720833,0,0.8,0.8
865,'2026/05/01 18:25:54:709',3,0.064062,0.720833,0,0.8,0.8
866,'2026/05/01 18:25:54:722',3,0.064062,0.720833,0,0.8,0.8
867,'2026/05/01 18:25:54:754',3,0.064062,0.720833,0,0.8,0.8
868,'2026/05/01 18:25:54:784',3,0.064062,0.720833,0,0.8,0.8
869,'2026/05/01 18:25:54:818',3,0.064062,0.720833,0,0.8,0.8
870,'2026/05/01 18:25:54:848',3,0.064062,0.720833,0,0.8,0.8
871,'2026/05/01 18:25:54:879',3,0.064062,0.720833,0,0.8,0.8
872,'2026/05/01 18:25:54:910',3,0.064062,0.720833,0,0.8,0.8
873,'2026/05/01 18:25:54:929',3,0.064062,0.720833,0,0.8,0.8
874,'2026/05/01 18:25:54:958',3,0.064062,0.720833,0,0.8,0.8
875,'2026/05/01 18:25:54:988',3,0.064062,0.720833,0,0.8,0.8
876,'2026/05/01 18:25:55:003',3,0.064062,0.720833,0,0.8,0.8
877,'2026/05/01 18:25:55:035',3,0.064062,0.720833,0,0.8,0.8
878,'2026/05/01 18:25:55:065',3,0.064062,0.720833,0,0.8,0.8
879,'2026/05/01 18:25:55:098',3,0.064062,0.720833,0,0.8,0.8
880,'2026/05/01 18:25:55:112',3,0.064062,0.720833,0,0.8,0.8
881,'2026/05/01 18:25:55:128',3,0.064062,0.720833,0,0.8,0.8
882,'2026/05/01 18:25:55:145',3,0.064062,0.720833,0,0.8,0.8
883,'2026/05/01 18:25:55:163',3,0.064062,0.720833,0,0.8,0.8
884,'2026/05/01 18:25:55:179',3,0.064062,0.720833,0,0.8,0.8
885,'2026/05/01 18:25:55:196',3,0.064062,0.720833,0,0.8,0.8
886,'2026/05/01 18:25:55:214',3,0.064062,0.720833,0,0.8,0.8
887,'2026/05/01 18:25:55:230',3,0.064062,0.720833,0,0.8,0.8
888,'2026/05/01 18:25:55:247',3,0.064062,0.720833,0,0.8,0.8
889,'2026/05/01 18:25:55:263',3,0.064062,0.720833,0,0.8,0.8
890,'2026/05/01 18:25:55:282',3,0.064062,0.720833,0,0.8,0.8
891,'2026/05/01 18:25:55:298',3,0.064062,0.720833,0,0.8,0.8
892,'2026/05/01 18:25:55:316',3,0.064062,0.720833,0,0.8,0.8
893,'2026/05/01 18:25:55:331',3,0.064062,0.720833,0,0.8,0.8
894,'2026/05/01 18:25:55:347',3,0.064062,0.720833,0,0.8,0.8
895,'2026/05/01 18:25:55:364',3,0.064062,0.720833,0,0.8,0.8
896,'2026/05/01 18:25:55:380',3,0.064062,0.720833,0,0.8,0.8
897,'2026/05/01 18:25:55:396',3,0.064062,0.720833,0,0.8,0.8
898,'2026/05/01 18:25:55:413',3,0.064062,0.720833,0,0.8,0.8
899,'2026/05/01 18:25:55:430',3,0.064062,0.720833,0,0.8,0.8
900,'2026/05/01 18:25:55:448',3,0.928125,0.954167,1,0.8,0.8
901,'2026/05/01 18:25:55:464',3,0.909375,0.916667,0.432666,0.8,0.8
902,'2026/05/01 18:25:55:480',3,0.89375,0.877083,0.429418,0.8,0.8
903,'2026/05/01 18:25:55:497',3,0.889063,0.858333,0.189737,0.8,0.8
904,'2026/05/01 18:25:55:514',3,0.8875,0.85625,0.028284,0.8,0.8
905,'2026/05/01 18:25:55:530',3,0.8875,0.847917,0.08,0.8,0.8
906,'2026/05/01 18:25:55:546',3,0.8875,0.84375,0.04,0.8,0.8
907,'2026/05/01 18:25:55:562',3,0.896875,0.8375,0.134164,0.8,0.8
908,'2026/05/01 18:25:55:580',3,0.904688,0.833333,0.107703,0.8,0.8
909,'2026/05/01 18:25:55:595',3,0.9375,0.816667,0.449444,0.8,0.8
910,'2026/05/01 18:25:55:611',3,0.957812,0.808333,0.272029,0.8,0.8
911,'2026/05/01 18:25:55:628',3,0.975,0.80625,0.220907,0.8,0.8
912,'2026/05/01 18:25:55:644',3,0.990625,0.802083,0.203961,0.8,0.8
913,'2026/05/01 18:25:55:661',3,0.990625,0.802083,0,0.8,0.8
914,'2026/05/01 18:25:55:677',3,0.990625,0.802083,0,0.8,0.8
915,'2026/05/01 18:25:55:694',3,0.990625,0.802083,0,0.8,0.8
916,'2026/05/01 18:25:55:709',3,0.990625,0.802083,0,0.8,0.8
917,'2026/05/01 18:25:55:725',3,0.990625,0.802083,0,0.8,0.8
918,'2026/05/01 18:25:55:742',3,0.973437,0.902083,0.984886,0.8,0.8
919,'2026/05/01 18:25:55:759',3,0.95625,0.90625,0.223607,0.8,0.8
920,'2026/05/01 18:25:55:777',3,0.90625,0.90625,0.64,0.8,0.8
921,'2026/05/01 18:25:55:793',3,0.846875,0.88125,0.796994,0.8,0.8
922,'2026/05/01 18:25:55:810',3,0.814062,0.852083,0.504777,0.8,0.8
923,'2026/05/01 18:25:55:826',3,0.779688,0.785417,0.77666,0.8,0.8
924,'2026/05/01 18:25:55:842',3,0.773438,0.7625,0.234094,0.8,0.8
925,'2026/05/01 18:25:55:858',3,0.765625,0.702083,0.588558,0.8,0.8
926,'2026/05/01 18:25:55:874',3,0.767187,0.672917,0.280713,0.8,0.8
927,'2026/05/01 18:25:55:891',3,0.784375,0.639583,0.38833,0.8,0.8
928,'2026/05/01 18:25:55:907',3,0.79375,0.629167,0.156205,0.8,0.8
929,'2026/05/01 18:25:55:925',3,0.8375,0.604167,0.609262,0.8,0.8
930,'2026/05/01 18:25:55:941',3,0.890625,0.597917,0.682642,0.8,0.8
931,'2026/05/01 18:25:55:958',3,0.920313,0.608333,0.392938,0.8,0.8
932,'2026/05/01 18:25:55:974',3,0.94375,0.64375,0.453431,0.8,0.8
933,'2026/05/01 18:25:55:989',3,0.946875,0.658333,0.145602,0.8,0.8
934,'2026/05/01 18:25:56:005',3,0.945313,0.710417,0.5004,0.8,0.8
935,'2026/05/01 18:25:56:022',3,0.939062,0.727083,0.178885,0.8,0.8
936,'2026/05/01 18:25:56:039',3,0.907812,0.795833,0.771751,0.8,0.8
937,'2026/05/01 18:25:56:056',3,0.878125,0.8375,0.551725,0.8,0.8
938,'2026/05/01 18:25:56:072',3,0.814062,0.8875,0.950158,0.8,0.8
939,'2026/05/01 18:25:56:089',3,0.790625,0.897917,0.316228,0.8,0.8
940,'2026/05/01 18:25:56:105',3,0.715625,0.910417,0.967471,0.8,0.8
941,'2026/05/01 18:25:56:122',3,0.64375,0.895833,0.930591,0.8,0.8
942,'2026/05/01 18:25:56:138',3,0.6125,0.866667,0.488262,0.8,0.8
943,'2026/05/01 18:25:56:154',3,0.5875,0.816667,0.576888,0.8,0.8
944,'2026/05/01 18:25:56:171',3,0.582812,0.804167,0.134164,0.8,0.8
945,'2026/05/01 18:25:56:189',3,0.582812,0.777083,0.26,0.8,0.8
946,'2026/05/01 18:25:56:204',3,0.59375,0.7625,0.19799,0.8,0.8
947,'2026/05/01 18:25:56:220',3,0.609375,0.752083,0.223607,0.8,0.8
948,'2026/05/01 18:25:56:236',3,0.620313,0.74375,0.161245,0.8,0.8
949,'2026/05/01 18:25:56:253',3,0.678125,0.735417,0.744312,0.8,0.8
950,'2026/05/01 18:25:56:269',3,0.717188,0.735417,0.5,0.8,0.8
951,'2026/05/01 18:25:56:285',3,0.764063,0.760417,0.64622,0.8,0.8
952,'2026/05/01 18:25:56:301',3,0.773438,0.770833,0.156205,0.8,0.8
953,'2026/05/01 18:25:56:318',3,0.798437,0.822917,0.593633,0.8,0.8
954,'2026/05/01 18:25:56:335',3,0.8,0.864583,0.4005,0.8,0.8
955,'2026/05/01 18:25:56:351',3,0.798437,0.875,0.10198,0.8,0.8
956,'2026/05/01 18:25:56:367',3,0.785937,0.904167,0.32249,0.8,0.8
957,'2026/05/01 18:25:56:385',3,0.771875,0.920833,0.240832,0.8,0.8
958,'2026/05/01 18:25:56:400',3,0.740625,0.935417,0.423792,0.8,0.8
959,'2026/05/01 18:25:56:417',3,0.721875,0.935417,0.24,0.8,0.8
960,'2026/05/01 18:25:56:433',3,0.667188,0.916667,0.722772,0.8,0.8
961,'2026/05/01 18:25:56:449',3,0.620313,0.864583,0.781025,0.8,0.8
962,'2026/05/01 18:25:56:465',3,0.603125,0.810417,0.564624,0.8,0.8
963,'2026/05/01 18:25:56:482',3,0.6,0.75,0.581378,0.8,0.8
964,'2026/05/01 18:25:56:498',3,0.603125,0.729167,0.203961,0.8,0.8
965,'2026/05/01 18:25:56:515',3,0.629687,0.670833,0.655134,0.8,0.8
966,'2026/05/01 18:25:56:531',3,0.654688,0.641667,0.425206,0.8,0.8
967,'2026/05/01 18:25:56:549',3,0.70625,0.610417,0.724983,0.8,0.8
968,'2026/05/01 18:25:56:566',3,0.745313,0.602083,0.50636,0.8,0.8
969,'2026/05/01 18:25:56:583',3,0.795313,0.604167,0.640312,0.8,0.8
970,'2026/05/01 18:25:56:601',3,0.851563,0.63125,0.765506,0.8,0.8
971,'2026/05/01 18:25:56:617',3,0.879687,0.666667,0.495177,0.8,0.8
972,'2026/05/01 18:25:56:633',3,0.895312,0.745833,0.785875,0.8,0.8
973,'2026/05/01 18:25:56:650',3,0.89375,0.8125,0.640312,0.8,0.8
974,'2026/05/01 18:25:56:667',3,0.884375,0.8625,0.494773,0.8,0.8
975,'2026/05/01 18:25:56:683',3,0.860937,0.91875,0.617738,0.8,0.8
976,'2026/05/01 18:25:56:700',3,0.85,0.935417,0.212603,0.8,0.8
977,'2026/05/01 18:25:56:716',3,0.810938,0.964583,0.573062,0.8,0.8
978,'2026/05/01 18:25:56:732',3,0.78125,0.975,0.392938,0.8,0.8
979,'2026/05/01 18:25:56:749',3,0.723437,0.96875,0.742428,0.8,0.8
980,'2026/05/01 18:25:56:765',3,0.704687,0.9625,0.247386,0.8,0.8
981,'2026/05/01 18:25:56:781',3,0.646875,0.93125,0.798499,0.8,0.8
982,'2026/05/01 18:25:56:798',3,0.61875,0.904167,0.444072,0.8,0.8
983,'2026/05/01 18:25:56:813',3,0.5875,0.845833,0.688186,0.8,0.8
984,'2026/05/01 18:25:56:830',3,0.58125,0.825,0.215407,0.8,0.8
985,'2026/05/01 18:25:56:847',3,0.58125,0.775,0.48,0.8,0.8
986,'2026/05/01 18:25:56:862',3,0.598437,0.729167,0.491935,0.8,0.8
987,'2026/05/01 18:25:56:881',3,0.615625,0.7,0.35609,0.8,0.8
988,'2026/05/01 18:25:56:896',3,0.65,0.670833,0.521536,0.8,0.8
989,'2026/05/01 18:25:56:913',3,0.6625,0.6625,0.178885,0.8,0.8
990,'2026/05/01 18:25:56:928',3,0.717188,0.645833,0.718053,0.8,0.8
991,'2026/05/01 18:25:56:944',3,0.75625,0.645833,0.5,0.8,0.8
992,'2026/05/01 18:25:56:961',3,0.807813,0.664583,0.684105,0.8,0.8
993,'2026/05/01 18:25:56:977',3,0.81875,0.675,0.172047,0.8,0.8
994,'2026/05/01 18:25:56:993',3,0.839063,0.7125,0.444072,0.8,0.8
995,'2026/05/01 18:25:57:010',3,0.84375,0.747917,0.345254,0.8,0.8
996,'2026/05/01 18:25:57:028',3,0.840625,0.8125,0.621289,0.8,0.8
997,'2026/05/01 18:25:57:043',3,0.826563,0.866667,0.550273,0.8,0.8
998,'2026/05/01 18:25:57:060',3,0.823438,0.883333,0.164924,0.8,0.8
999,'2026/05/01 18:25:57:076',3,0.815625,0.90625,0.241661,0.8,0.8
1000,'2026/05/01 18:25:57:092',3,0.814062,0.910417,0.044721,0.8,0.8
1001,'2026/05/01 18:25:57:108',3,0.809375,0.9125,0.063246,0.8,0.8
1002,'2026/05/01 18:25:57:124',3,0.807813,0.9125,0.02,0.8,0.8
1003,'2026/05/01 18:25:57:141',3,0.795313,0.891667,0.256125,0.8,0.8
1004,'2026/05/01 18:25:57:158',3,0.792188,0.879167,0.126491,0.8,0.8
1005,'2026/05/01 18:25:57:174',3,0.789063,0.845833,0.32249,0.8,0.8
1006,'2026/05/01 18:25:57:190',3,0.790625,0.827083,0.181108,0.8,0.8
1007,'2026/05/01 18:25:57:206',3,0.803125,0.797917,0.32249,0.8,0.8
1008,'2026/05/01 18:25:57:223',3,0.825,0.779167,0.332866,0.8,0.8
1009,'2026/05/01 18:25:57:240',3,0.871875,0.758333,0.632456,0.8,0.8
1010,'2026/05/01 18:25:57:257',3,0.889063,0.75625,0.220907,0.8,0.8
1011,'2026/05/01 18:25:57:273',3,0.939062,0.754167,0.640312,0.8,0.8
1012,'2026/05/01 18:25:57:290',3,0.9625,0.766667,0.32311,0.8,0.8
1013,'2026/05/01 18:25:57:307',3,0.975,0.791667,0.288444,0.8,0.8
1014,'2026/05/01 18:25:57:324',3,0.973437,0.825,0.320624,0.8,0.8
1015,'2026/05/01 18:25:57:341',3,0.964063,0.858333,0.34176,0.8,0.8
1016,'2026/05/01 18:25:57:357',3,0.940625,0.9,0.5,0.8,0.8
1017,'2026/05/01 18:25:57:375',3,0.920313,0.920833,0.328024,0.8,0.8
1018,'2026/05/01 18:25:57:391',3,0.873438,0.935417,0.616117,0.8,0.8
1019,'2026/05/01 18:25:57:407',3,0.85625,0.935417,0.22,0.8,0.8
1020,'2026/05/01 18:25:57:423',3,0.8,0.897917,0.804984,0.8,0.8
1021,'2026/05/01 18:25:57:440',3,0.782812,0.875,0.311127,0.8,0.8
1022,'2026/05/01 18:25:57:458',3,0.74375,0.772917,1,0.8,0.8
1023,'2026/05/01 18:25:57:474',3,0.739062,0.716667,0.543323,0.8,0.8
1024,'2026/05/01 18:25:57:489',3,0.740625,0.702083,0.141421,0.8,0.8
1025,'2026/05/01 18:25:57:505',3,0.75,0.675,0.286356,0.8,0.8
1026,'2026/05/01 18:25:57:523',3,0.78125,0.635417,0.551725,0.8,0.8
1027,'2026/05/01 18:25:57:538',3,0.825,0.616667,0.588218,0.8,0.8
1028,'2026/05/01 18:25:57:554',3,0.839063,0.614583,0.181108,0.8,0.8
1029,'2026/05/01 18:25:57:571',3,0.867188,0.614583,0.36,0.8,0.8
1030,'2026/05/01 18:25:57:587',3,0.909375,0.635417,0.575847,0.8,0.8
1031,'2026/05/01 18:25:57:604',3,0.942187,0.691667,0.684105,0.8,0.8
1032,'2026/05/01 18:25:57:619',3,0.951563,0.71875,0.286356,0.8,0.8
1033,'2026/05/01 18:25:57:636',3,0.960938,0.820833,0.98732,0.8,0.8
1034,'2026/05/01 18:25:57:652',3,0.960938,0.852083,0.3,0.8,0.8
1035,'2026/05/01 18:25:57:670',3,0.954687,0.922917,0.68469,0.8,0.8
1036,'2026/05/01 18:25:57:686',3,0.945313,0.95,0.286356,0.8,0.8
1037,'2026/05/01 18:25:57:702',3,0.934375,0.960417,0.172047,0.8,0.8
1038,'2026/05/01 18:25:57:719',3,0.920313,0.964583,0.184391,0.8,0.8
1039,'2026/05/01 18:25:57:735',3,0.9,0.960417,0.263059,0.8,0.8
1040,'2026/05/01 18:25:57:751',3,0.864062,0.914583,0.636553,0.8,0.8
1041,'2026/05/01 18:25:57:768',3,0.853125,0.891667,0.260768,0.8,0.8
1042,'2026/05/01 18:25:57:785',3,0.839063,0.827083,0.6456,0.8,0.8
1043,'2026/05/01 18:25:57:801',3,0.8375,0.7875,0.380526,0.8,0.8
1044,'2026/05/01 18:25:57:820',3,0.85,0.733333,0.544059,0.8,0.8
1045,'2026/05/01 18:25:57:835',3,0.873438,0.689583,0.51614,0.8,0.8
1046,'2026/05/01 18:25:57:851',3,0.890625,0.666667,0.311127,0.8,0.8
1047,'2026/05/01 18:25:57:867',3,0.907812,0.652083,0.260768,0.8,0.8
1048,'2026/05/01 18:25:57:883',3,0.923437,0.645833,0.208806,0.8,0.8
1049,'2026/05/01 18:25:57:899',3,0.939062,0.645833,0.2,0.8,0.8
1050,'2026/05/01 18:25:57:915',3,0.95625,0.654167,0.234094,0.8,0.8
1051,'2026/05/01 18:25:57:932',3,0.959375,0.6625,0.089443,0.8,0.8
1052,'2026/05/01 18:25:57:949',3,0.960938,0.702083,0.380526,0.8,0.8
1053,'2026/05/01 18:25:57:966',3,0.940625,0.78125,0.803243,0.8,0.8
1054,'2026/05/01 18:25:57:983',3,0.920313,0.825,0.493964,0.8,0.8
1055,'2026/05/01 18:25:57:999',3,0.890625,0.872917,0.596657,0.8,0.8
1056,'2026/05/01 18:25:58:015',3,0.876562,0.8875,0.228035,0.8,0.8
1057,'2026/05/01 18:25:58:032',3,0.826563,0.914583,0.690797,0.8,0.8
1058,'2026/05/01 18:25:58:049',3,0.792188,0.920833,0.444072,0.8,0.8
1059,'2026/05/01 18:25:58:066',3,0.748438,0.9,0.594643,0.8,0.8
1060,'2026/05/01 18:25:58:082',3,0.715625,0.85,0.637809,0.8,0.8
1061,'2026/05/01 18:25:58:098',3,0.7125,0.827083,0.223607,0.8,0.8
1062,'2026/05/01 18:25:58:115',3,0.70625,0.7875,0.38833,0.8,0.8
1063,'2026/05/01 18:25:58:132',3,0.707812,0.775,0.121655,0.8,0.8
1064,'2026/05/01 18:25:58:150',3,0.717188,0.758333,0.2,0.8,0.8
1065,'2026/05/01 18:25:58:167',3,0.74375,0.739583,0.384708,0.8,0.8
1066,'2026/05/01 18:25:58:183',3,0.773438,0.729167,0.392938,0.8,0.8
1067,'2026/05/01 18:25:58:199',3,0.83125,0.725,0.74108,0.8,0.8
1068,'2026/05/01 18:25:58:214',3,0.85,0.729167,0.243311,0.8,0.8
1069,'2026/05/01 18:25:58:230',3,0.885938,0.752083,0.509902,0.8,0.8
1070,'2026/05/01 18:25:58:248',3,0.926562,0.827083,0.888144,0.8,0.8
1071,'2026/05/01 18:25:58:264',3,0.94375,0.93125,1,0.8,0.8
1072,'2026/05/01 18:25:58:282',3,0.948438,0.9625,0.305941,0.8,0.8
1073,'2026/05/01 18:25:58:297',3,0.948438,0.9625,0,0.8,0.8
1074,'2026/05/01 18:25:58:313',3,0.948438,0.9625,0,0.8,0.8
1075,'2026/05/01 18:25:58:329',3,0.948438,0.9625,0,0.8,0.8
1076,'2026/05/01 18:25:58:347',3,0.948438,0.9625,0,0.8,0.8
1077,'2026/05/01 18:25:58:362',3,0.948438,0.9625,0,0.8,0.8
1078,'2026/05/01 18:25:58:378',3,0.948438,0.9625,0,0.8,0.8
1079,'2026/05/01 18:25:58:394',3,0.8,0.927083,1,0.8,0.8
1080,'2026/05/01 18:25:58:410',3,0.79375,0.89375,0.329848,0.8,0.8
1081,'2026/05/01 18:25:58:427',3,0.785937,0.816667,0.746726,0.8,0.8
1082,'2026/05/01 18:25:58:444',3,0.792188,0.783333,0.329848,0.8,0.8
1083,'2026/05/01 18:25:58:459',3,0.8125,0.745833,0.444072,0.8,0.8
1084,'2026/05/01 18:25:58:475',3,0.821875,0.7375,0.144222,0.8,0.8
1085,'2026/05/01 18:25:58:492',3,0.85625,0.714583,0.491935,0.8,0.8
1086,'2026/05/01 18:25:58:508',3,0.882813,0.708333,0.345254,0.8,0.8
1087,'2026/05/01 18:25:58:524',3,0.932813,0.7125,0.641249,0.8,0.8
1088,'2026/05/01 18:25:58:541',3,0.945313,0.716667,0.164924,0.8,0.8
1089,'2026/05/01 18:25:58:556',3,0.967188,0.772917,0.608276,0.8,0.8
1090,'2026/05/01 18:25:58:574',3,0.96875,0.85,0.74027,0.8,0.8
1091,'2026/05/01 18:25:58:589',3,0.964063,0.879167,0.286356,0.8,0.8
1092,'2026/05/01 18:25:58:605',3,0.94375,0.941667,0.653911,0.8,0.8
1093,'2026/05/01 18:25:58:622',3,0.926562,0.970833,0.35609,0.8,0.8
1094,'2026/05/01 18:25:58:640',3,0.889063,0.997917,0.545894,0.8,0.8
1095,'2026/05/01 18:25:58:656',3,0.889063,0.997917,0,0.8,0.8
1096,'2026/05/01 18:25:58:672',3,0.889063,0.997917,0,0.8,0.8
1097,'2026/05/01 18:25:58:688',3,0.7875,0.96875,1,0.8,0.8
1098,'2026/05/01 18:25:58:704',3,0.767187,0.929167,0.460435,0.8,0.8
1099,'2026/05/01 18:25:58:720',3,0.759375,0.914583,0.172047,0.8,0.8
1100,'2026/05/01 18:25:58:736',3,0.753125,0.866667,0.466905,0.8,0.8
1101,'2026/05/01 18:25:58:753',3,0.75625,0.84375,0.223607,0.8,0.8
1102,'2026/05/01 18:25:58:770',3,0.771875,0.810417,0.377359,0.8,0.8
1103,'2026/05/01 18:25:58:786',3,0.801562,0.777083,0.49679,0.8,0.8
1104,'2026/05/01 18:25:58:803',3,0.8125,0.770833,0.152315,0.8,0.8
1105,'2026/05/01 18:25:58:819',3,0.853125,0.75625,0.538516,0.8,0.8
1106,'2026/05/01 18:25:58:836',3,0.882813,0.754167,0.380526,0.8,0.8
1107,'2026/05/01 18:25:58:853',3,0.904688,0.76875,0.31305,0.8,0.8
1108,'2026/05/01 18:25:58:870',3,0.907812,0.779167,0.107703,0.8,0.8
1109,'2026/05/01 18:25:58:888',3,0.910937,0.814583,0.342345,0.8,0.8
1110,'2026/05/01 18:25:58:904',3,0.898438,0.854167,0.412311,0.8,0.8
1111,'2026/05/01 18:25:58:921',3,0.885938,0.879167,0.288444,0.8,0.8
1112,'2026/05/01 18:25:58:936',3,0.854688,0.9125,0.51225,0.8,0.8
1113,'2026/05/01 18:25:58:952',3,0.839063,0.922917,0.223607,0.8,0.8
1114,'2026/05/01 18:25:58:968',3,0.795313,0.93125,0.565685,0.8,0.8
1115,'2026/05/01 18:25:58:984',3,0.765625,0.925,0.384708,0.8,0.8
1116,'2026/05/01 18:25:59:001',3,0.729688,0.885417,0.596657,0.8,0.8
1117,'2026/05/01 18:25:59:017',3,0.720312,0.866667,0.216333,0.8,0.8
1118,'2026/05/01 18:25:59:034',3,0.7125,0.8125,0.529528,0.8,0.8
1119,'2026/05/01 18:25:59:049',3,0.714063,0.777083,0.340588,0.8,0.8
1120,'2026/05/01 18:25:59:066',3,0.734375,0.729167,0.528394,0.8,0.8
1121,'2026/05/01 18:25:59:083',3,0.74375,0.71875,0.156205,0.8,0.8
1122,'2026/05/01 18:25:59:099',3,0.778125,0.685417,0.544059,0.8,0.8
1123,'2026/05/01 18:25:59:116',3,0.795313,0.677083,0.234094,0.8,0.8
1124,'2026/05/01 18:25:59:134',3,0.853125,0.66875,0.744312,0.8,0.8
1125,'2026/05/01 18:25:59:149',3,0.8875,0.679167,0.451221,0.8,0.8
1126,'2026/05/01 18:25:59:166',3,0.917188,0.7,0.429418,0.8,0.8
1127,'2026/05/01 18:25:59:183',3,0.939062,0.75625,0.608276,0.8,0.8
1128,'2026/05/01 18:25:59:199',3,0.939062,0.78125,0.24,0.8,0.8
1129,'2026/05/01 18:25:59:216',3,0.939062,0.84375,0.6,0.8,0.8
1130,'2026/05/01 18:25:59:232',3,0.93125,0.877083,0.335261,0.8,0.8
1131,'2026/05/01 18:25:59:250',3,0.9125,0.91875,0.466476,0.8,0.8
1132,'2026/05/01 18:25:59:266',3,0.904688,0.93125,0.156205,0.8,0.8
1133,'2026/05/01 18:25:59:281',3,0.875,0.95625,0.449444,0.8,0.8
1134,'2026/05/01 18:25:59:297',3,0.85625,0.958333,0.240832,0.8,0.8
1135,'2026/05/01 18:25:59:314',3,0.817187,0.939583,0.531413,0.8,0.8
1136,'2026/05/01 18:25:59:331',3,0.785937,0.883333,0.672012,0.8,0.8
1137,'2026/05/01 18:25:59:347',3,0.779688,0.8625,0.215407,0.8,0.8
1138,'2026/05/01 18:25:59:364',3,0.778125,0.8,0.600333,0.8,0.8
1139,'2026/05/01 18:25:59:381',3,0.784375,0.76875,0.310483,0.8,0.8
1140,'2026/05/01 18:25:59:398',3,0.798437,0.741667,0.316228,0.8,0.8
1141,'2026/05/01 18:25:59:414',3,0.804688,0.733333,0.113137,0.8,0.8
1142,'2026/05/01 18:25:59:430',3,0.828125,0.71875,0.331059,0.8,0.8
1143,'2026/05/01 18:25:59:447',3,0.85,0.714583,0.282843,0.8,0.8
1144,'2026/05/01 18:25:59:463',3,0.8875,0.71875,0.481664,0.8,0.8
1145,'2026/05/01 18:25:59:480',3,0.898438,0.725,0.152315,0.8,0.8
1146,'2026/05/01 18:25:59:500',3,0.920313,0.777083,0.573062,0.8,0.8
1147,'2026/05/01 18:25:59:513',3,0.926562,0.86875,0.883629,0.8,0.8
1148,'2026/05/01 18:25:59:530',3,0.920313,0.920833,0.50636,0.8,0.8
1149,'2026/05/01 18:25:59:546',3,0.907812,0.9625,0.430813,0.8,0.8
1150,'2026/05/01 18:25:59:563',3,0.885938,0.995833,0.425206,0.8,0.8
1151,'2026/05/01 18:25:59:580',3,0.885938,0.995833,0,0.8,0.8
1152,'2026/05/01 18:25:59:597',3,0.885938,0.995833,0,0.8,0.8
1153,'2026/05/01 18:25:59:614',3,0.810938,0.979167,0.973242,0.8,0.8
1154,'2026/05/01 18:25:59:630',3,0.798437,0.960417,0.240832,0.8,0.8
1155,'2026/05/01 18:25:59:647',3,0.771875,0.89375,0.724707,0.8,0.8
1156,'2026/05/01 18:25:59:663',3,0.767187,0.81875,0.722496,0.8,0.8
1157,'2026/05/01 18:25:59:680',3,0.773438,0.785417,0.329848,0.8,0.8
1158,'2026/05/01 18:25:59:698',3,0.7875,0.758333,0.316228,0.8,0.8
1159,'2026/05/01 18:25:59:713',3,0.810938,0.73125,0.396989,0.8,0.8
1160,'2026/05/01 18:25:59:729',3,0.83125,0.722917,0.272029,0.8,0.8
1161,'2026/05/01 18:25:59:746',3,0.851563,0.71875,0.263059,0.8,0.8
1162,'2026/05/01 18:25:59:762',3,0.859375,0.720833,0.10198,0.8,0.8
1163,'2026/05/01 18:25:59:780',3,0.875,0.7375,0.256125,0.8,0.8
1164,'2026/05/01 18:25:59:796',3,0.884375,0.76875,0.32311,0.8,0.8
1165,'2026/05/01 18:25:59:813',3,0.885938,0.839583,0.680294,0.8,0.8
1166,'2026/05/01 18:25:59:830',3,0.882813,0.85625,0.164924,0.8,0.8
1167,'2026/05/01 18:25:59:847',3,0.870313,0.89375,0.393954,0.8,0.8
1168,'2026/05/01 18:25:59:863',3,0.859375,0.90625,0.184391,0.8,0.8
1169,'2026/05/01 18:25:59:879',3,0.848437,0.908333,0.141421,0.8,0.8
1170,'2026/05/01 18:25:59:896',3,0.83125,0.902083,0.228035,0.8,0.8
1171,'2026/05/01 18:25:59:912',3,0.807813,0.875,0.396989,0.8,0.8
1172,'2026/05/01 18:25:59:930',3,0.776563,0.80625,0.771751,0.8,0.8
1173,'2026/05/01 18:25:59:945',3,0.764063,0.745833,0.601664,0.8,0.8
1174,'2026/05/01 18:25:59:962',3,0.764063,0.735417,0.1,0.8,0.8
1175,'2026/05/01 18:25:59:978',3,0.764063,0.7,0.34,0.8,0.8
1176,'2026/05/01 18:25:59:995',3,0.767187,0.683333,0.164924,0.8,0.8
1177,'2026/05/01 18:26:00:012',3,0.771875,0.672917,0.116619,0.8,0.8
1178,'2026/05/01 18:26:00:028',3,0.784375,0.6625,0.18868,0.8,0.8
1179,'2026/05/01 18:26:00:044',3,0.798437,0.658333,0.184391,0.8,0.8
1180,'2026/05/01 18:26:00:061',3,0.80625,0.658333,0.1,0.8,0.8
1181,'2026/05/01 18:26:00:078',3,0.832812,0.666667,0.349285,0.8,0.8
1182,'2026/05/01 18:26:00:094',3,0.860937,0.704167,0.509117,0.8,0.8
1183,'2026/05/01 18:26:00:110',3,0.88125,0.735417,0.396989,0.8,0.8
1184,'2026/05/01 18:26:00:127',3,0.909375,0.789583,0.632456,0.8,0.8
1185,'2026/05/01 18:26:00:143',3,0.917188,0.802083,0.156205,0.8,0.8
1186,'2026/05/01 18:26:00:159',3,0.932813,0.825,0.297321,0.8,0.8
1187,'2026/05/01 18:26:00:175',3,0.9375,0.827083,0.063246,0.8,0.8
1188,'2026/05/01 18:26:00:191',3,0.9375,0.827083,0,0.8,0.8
1189,'2026/05/01 18:26:00:208',3,0.9375,0.827083,0,0.8,0.8
1190,'2026/05/01 18:26:00:224',3,0.9375,0.827083,0,0.8,0.8
1191,'2026/05/01 18:26:00:241',3,0.920313,0.80625,0.297321,0.8,0.8
1192,'2026/05/01 18:26:00:258',3,0.90625,0.8,0.189737,0.8,0.8
1193,'2026/05/01 18:26:00:274',3,0.859375,0.7625,0.699714,0.8,0.8
1194,'2026/05/01 18:26:00:291',3,0.823438,0.74375,0.493964,0.8,0.8
1195,'2026/05/01 18:26:00:310',3,0.773438,0.733333,0.647765,0.8,0.8
1196,'2026/05/01 18:26:00:325',3,0.732813,0.741667,0.526118,0.8,0.8
1197,'2026/05/01 18:26:00:342',3,0.723437,0.747917,0.134164,0.8,0.8
1198,'2026/05/01 18:26:00:357',3,0.7,0.772917,0.384187,0.8,0.8
1199,'2026/05/01 18:26:00:373',3,0.685938,0.797917,0.3,0.8,0.8
1200,'2026/05/01 18:26:00:389',3,0.679688,0.8125,0.161245,0.8,0.8
1201,'2026/05/01 18:26:00:408',3,0.670313,0.860417,0.475395,0.8,0.8
1202,'2026/05/01 18:26:00:423',3,0.670313,0.879167,0.18,0.8,0.8
1203,'2026/05/01 18:26:00:439',3,0.673437,0.897917,0.184391,0.8,0.8
1204,'2026/05/01 18:26:00:456',3,0.690625,0.91875,0.297321,0.8,0.8
1205,'2026/05/01 18:26:00:473',3,0.701563,0.922917,0.145602,0.8,0.8
1206,'2026/05/01 18:26:00:490',3,0.745313,0.922917,0.56,0.8,0.8
1207,'2026/05/01 18:26:00:506',3,0.790625,0.904167,0.607289,0.8,0.8
1208,'2026/05/01 18:26:00:522',3,0.848437,0.870833,0.806226,0.8,0.8
1209,'2026/05/01 18:26:00:538',3,0.860937,0.858333,0.2,0.8,0.8
1210,'2026/05/01 18:26:00:555',3,0.889063,0.822917,0.495177,0.8,0.8
1211,'2026/05/01 18:26:00:571',3,0.9,0.791667,0.331059,0.8,0.8
1212,'2026/05/01 18:26:00:588',3,0.90625,0.747917,0.427551,0.8,0.8
1213,'2026/05/01 18:26:00:604',3,0.90625,0.7375,0.1,0.8,0.8
1214,'2026/05/01 18:26:00:622',3,0.892187,0.7,0.402492,0.8,0.8
1215,'2026/05/01 18:26:00:638',3,0.864062,0.670833,0.45607,0.8,0.8
1216,'2026/05/01 18:26:00:654',3,0.842188,0.660417,0.297321,0.8,0.8
1217,'2026/05/01 18:26:00:670',3,0.807813,0.658333,0.440454,0.8,0.8
1218,'2026/05/01 18:26:00:686',3,0.79375,0.6625,0.184391,0.8,0.8
1219,'2026/05/01 18:26:00:703',3,0.754687,0.683333,0.538516,0.8,0.8
1220,'2026/05/01 18:26:00:720',3,0.74375,0.689583,0.152315,0.8,0.8
1221,'2026/05/01 18:26:00:737',3,0.715625,0.73125,0.538145,0.8,0.8
1222,'2026/05/01 18:26:00:753',3,0.709375,0.747917,0.178885,0.8,0.8
1223,'2026/05/01 18:26:00:770',3,0.70625,0.766667,0.184391,0.8,0.8
1224,'2026/05/01 18:26:00:786',3,0.70625,0.8,0.32,0.8,0.8
1225,'2026/05/01 18:26:00:802',3,0.7125,0.8125,0.144222,0.8,0.8
1226,'2026/05/01 18:26:00:818',3,0.729688,0.8375,0.325576,0.8,0.8
1227,'2026/05/01 18:26:00:835',3,0.75,0.845833,0.272029,0.8,0.8
1228,'2026/05/01 18:26:00:851',3,0.789063,0.847917,0.5004,0.8,0.8
1229,'2026/05/01 18:26:00:867',3,0.8,0.845833,0.141421,0.8,0.8
1230,'2026/05/01 18:26:00:883',3,0.832812,0.827083,0.456946,0.8,0.8
1231,'2026/05/01 18:26:00:899',3,0.839063,0.816667,0.128062,0.8,0.8
1232,'2026/05/01 18:26:00:916',3,0.853125,0.783333,0.367151,0.8,0.8
1233,'2026/05/01 18:26:00:932',3,0.859375,0.752083,0.310483,0.8,0.8
1234,'2026/05/01 18:26:00:948',3,0.860937,0.7,0.5004,0.8,0.8
1235,'2026/05/01 18:26:00:965',3,0.859375,0.685417,0.141421,0.8,0.8
1236,'2026/05/01 18:26:00:981',3,0.85,0.664583,0.233238,0.8,0.8
1237,'2026/05/01 18:26:00:998',3,0.839063,0.654167,0.172047,0.8,0.8
1238,'2026/05/01 18:26:01:014',3,0.829687,0.652083,0.121655,0.8,0.8
1239,'2026/05/01 18:26:01:031',3,0.810938,0.65625,0.243311,0.8,0.8
1240,'2026/05/01 18:26:01:047',3,0.804688,0.660417,0.089443,0.8,0.8
1241,'2026/05/01 18:26:01:064',3,0.7875,0.677083,0.272029,0.8,0.8
1242,'2026/05/01 18:26:01:081',3,0.779688,0.695833,0.205913,0.8,0.8
1243,'2026/05/01 18:26:01:097',3,0.776563,0.722917,0.263059,0.8,0.8
1244,'2026/05/01 18:26:01:115',3,0.776563,0.733333,0.1,0.8,0.8
1245,'2026/05/01 18:26:01:132',3,0.7875,0.78125,0.480833,0.8,0.8
1246,'2026/05/01 18:26:01:149',3,0.8125,0.81875,0.481664,0.8,0.8
1247,'2026/05/01 18:26:01:164',3,0.835938,0.8375,0.349857,0.8,0.8
1248,'2026/05/01 18:26:01:180',3,0.846875,0.845833,0.161245,0.8,0.8
1249,'2026/05/01 18:26:01:199',3,0.875,0.852083,0.364966,0.8,0.8
1250,'2026/05/01 18:26:01:213',3,0.884375,0.854167,0.121655,0.8,0.8
1251,'2026/05/01 18:26:01:230',3,0.884375,0.854167,0,0.8,0.8
1252,'2026/05/01 18:26:01:246',3,0.884375,0.854167,0,0.8,0.8
1253,'2026/05/01 18:26:01:263',3,0.885938,0.85,0.044721,0.8,0.8
1254,'2026/05/01 18:26:01:280',3,0.885938,0.820833,0.28,0.8,0.8
1255,'2026/05/01 18:26:01:296',3,0.882813,0.802083,0.184391,0.8,0.8
1256,'2026/05/01 18:26:01:312',3,0.878125,0.78125,0.208806,0.8,0.8
1257,'2026/05/01 18:26:01:328',3,0.878125,0.78125,0,0.8,0.8
1258,'2026/05/01 18:26:01:345',3,0.876562,0.779167,0.028284,0.8,0.8
1259,'2026/05/01 18:26:01:361',3,0.876562,0.779167,0,0.8,0.8
1260,'2026/05/01 18:26:01:378',3,0.876562,0.779167,0,0.8,0.8
1261,'2026/05/01 18:26:01:395',3,0.876562,0.779167,0,0.8,0.8
1262,'2026/05/01 18:26:01:410',3,0.876562,0.779167,0,0.8,0.8
1263,'2026/05/01 18:26:01:427',3,0.876562,0.779167,0,0.8,0.8
1264,'2026/05/01 18:26:01:444',3,0.876562,0.779167,0,0.8,0.8
1265,'2026/05/01 18:26:01:459',3,0.876562,0.791667,0.12,0.8,0.8
1266,'2026/05/01 18:26:01:476',3,0.88125,0.8125,0.208806,0.8,0.8
1267,'2026/05/01 18:26:01:494',3,0.895312,0.852083,0.420476,0.8,0.8
1268,'2026/05/01 18:26:01:508',3,0.910937,0.90625,0.557136,0.8,0.8
1269,'2026/05/01 18:26:01:524',3,0.91875,0.935417,0.297321,0.8,0.8
1270,'2026/05/01 18:26:01:541',3,0.93125,0.995833,0.601664,0.8,0.8
1271,'2026/05/01 18:26:01:558',3,0.93125,0.995833,0,0.8,0.8
1272,'2026/05/01 18:26:01:575',3,0.93125,0.995833,0,0.8,0.8
1273,'2026/05/01 18:26:01:591',3,0.93125,0.995833,0,0.8,0.8
1274,'2026/05/01 18:26:01:608',3,0.93125,0.995833,0,0.8,0.8
1275,'2026/05/01 18:26:01:624',3,0.93125,0.995833,0,0.8,0.8
1276,'2026/05/01 18:26:01:640',3,0.93125,0.995833,0,0.8,0.8
1277,'2026/05/01 18:26:01:656',3,0.93125,0.995833,0,0.8,0.8
1278,'2026/05/01 18:26:01:673',3,0.93125,0.995833,0,0.8,0.8
1279,'2026/05/01 18:26:01:690',3,0.93125,0.995833,0,0.8,0.8
1280,'2026/05/01 18:26:01:707',3,0.93125,0.995833,0,0.8,0.8
1281,'2026/05/01 18:26:01:723',3,0.93125,0.995833,0,0.8,0.8
1282,'2026/05/01 18:26:01:740',3,0.93125,0.995833,0,0.8,0.8
1283,'2026/05/01 18:26:01:757',3,0.026563,0.95625,1,0.8,0.8
1284,'2026/05/01 18:26:01:773',3,0.026563,0.95625,0,0.8,0.8
1285,'2026/05/01 18:26:01:790',3,0.026563,0.95625,0,0.8,0.8
1286,'2026/05/01 18:26:01:807',3,0.026563,0.95625,0,0.8,0.8
1287,'2026/05/01 18:26:01:823',3,0.026563,0.95625,0,0.8,0.8
1288,'2026/05/01 18:26:01:840',3,0.026563,0.95625,0,0.8,0.8
1289,'2026/05/01 18:26:01:856',3,0.026563,0.95625,0,0.8,0.8
1290,'2026/05/01 18:26:01:873',3,0.026563,0.95625,0,0.8,0.8
1291,'2026/05/01 18:26:01:889',3,0.026563,0.95625,0,0.8,0.8
1292,'2026/05/01 18:26:01:906',3,0.026563,0.95625,0,0.8,0.8
1293,'2026/05/01 18:26:01:922',3,0.026563,0.95625,0,0.8,0.8
1294,'2026/05/01 18:26:01:939',3,0.026563,0.95625,0,0.8,0.8
1295,'2026/05/01 18:26:01:955',3,0.026563,0.95625,0,0.8,0.8
1296,'2026/05/01 18:26:01:972',3,0.026563,0.95625,0,0.8,0.8
1297,'2026/05/01 18:26:01:988',3,0.026563,0.95625,0,0.8,0.8
1298,'2026/05/01 18:26:02:005',3,0.026563,0.95625,0,0.8,0.8
1299,'2026/05/01 18:26:02:021',3,0.026563,0.95625,0,0.8,0.8
1300,'2026/05/01 18:26:02:038',3,0.026563,0.95625,0,0.8,0.8
1301,'2026/05/01 18:26:02:054',3,0.026563,0.95625,0,0.8,0.8
1302,'2026/05/01 18:26:02:071',3,0.026563,0.95625,0,0.8,0.8
1303,'2026/05/01 18:26:02:087',3,0.026563,0.95625,0,0.8,0.8
1304,'2026/05/01 18:26:02:103',3,0.026563,0.95625,0,0.8,0.8
1305,'2026/05/01 18:26:02:119',3,0.026563,0.95625,0,0.8,0.8
1306,'2026/05/01 18:26:02:135',3,0.026563,0.95625,0,0.8,0.8
1307,'2026/05/01 18:26:02:152',3,0.026563,0.95625,0,0.8,0.8
1308,'2026/05/01 18:26:02:168',3,0.026563,0.95625,0,0.8,0.8
1309,'2026/05/01 18:26:02:185',3,0.026563,0.95625,0,0.8,0.8
1310,'2026/05/01 18:26:02:202',3,0.026563,0.95625,0,0.8,0.8
1311,'2026/05/01 18:26:02:219',3,0.026563,0.95625,0,0.8,0.8
1312,'2026/05/01 18:26:02:235',3,0.026563,0.95625,0,0.8,0.8
1313,'2026/05/01 18:26:02:251',3,0.026563,0.95625,0,0.8,0.8
1314,'2026/05/01 18:26:02:268',3,0.026563,0.95625,0,0.8,0.8
1315,'2026/05/01 18:26:02:285',3,0.026563,0.95625,0,0.8,0.8
1316,'2026/05/01 18:26:02:302',3,0.026563,0.95625,0,0.8,0.8
1317,'2026/05/01 18:26:02:319',3,0.026563,0.95625,0,0.8,0.8
1318,'2026/05/01 18:26:02:336',3,0.026563,0.95625,0,0.8,0.8
1319,'2026/05/01 18:26:02:352',3,0.026563,0.95625,0,0.8,0.8
1320,'2026/05/01 18:26:02:369',3,0.026563,0.95625,0,0.8,0.8
1321,'2026/05/01 18:26:02:385',3,0.026563,0.95625,0,0.8,0.8
1322,'2026/05/01 18:26:02:402',3,0.026563,0.95625,0,0.8,0.8
1323,'2026/05/01 18:26:02:419',3,0.026563,0.95625,0,0.8,0.8
1324,'2026/05/01 18:26:02:435',3,0.026563,0.95625,0,0.8,0.8
1325,'2026/05/01 18:26:02:451',3,0.026563,0.95625,0,0.8,0.8
1326,'2026/05/01 18:26:02:468',3,0.026563,0.95625,0,0.8,0.8
1327,'2026/05/01 18:26:02:485',3,0.026563,0.95625,0,0.8,0.8
1328,'2026/05/01 18:26:02:512',3,0.026563,0.95625,0,0.8,0.8
1329,'2026/05/01 18:26:02:542',3,0.026563,0.95625,0,0.8,0.8
1330,'2026/05/01 18:26:02:572',3,0.026563,0.95625,0,0.8,0.8
1331,'2026/05/01 18:26:02:588',3,0.026563,0.95625,0,0.8,0.8
1332,'2026/05/01 18:26:02:620',3,0.026563,0.95625,0,0.8,0.8
1333,'2026/05/01 18:26:02:650',3,0.026563,0.95625,0,0.8,0.8
1334,'2026/05/01 18:26:02:682',3,0.026563,0.95625,0,0.8,0.8
1335,'2026/05/01 18:26:06:040',4,0.026563,0.95625,0,0.8,0.2
1336,'2026/05/01 18:26:06:071',4,0.026563,0.95625,0,0.8,0.2
1337,'2026/05/01 18:26:06:105',4,0.026563,0.95625,0,0.8,0.2
1338,'2026/05/01 18:26:06:134',4,0.026563,0.95625,0,0.8,0.2
1339,'2026/05/01 18:26:06:150',4,0.026563,0.95625,0,0.8,0.2
1340,'2026/05/01 18:26:06:181',4,0.026563,0.95625,0,0.8,0.2
1341,'2026/05/01 18:26:06:212',4,0.026563,0.95625,0,0.8,0.2
1342,'2026/05/01 18:26:06:245',4,0.026563,0.95625,0,0.8,0.2
1343,'2026/05/01 18:26:06:273',4,0.026563,0.95625,0,0.8,0.2
1344,'2026/05/01 18:26:06:305',4,0.026563,0.95625,0,0.8,0.2
1345,'2026/05/01 18:26:06:338',4,0.026563,0.95625,0,0.8,0.2
1346,'2026/05/01 18:26:06:366',4,0.026563,0.95625,0,0.8,0.2
1347,'2026/05/01 18:26:06:396',4,0.026563,0.95625,0,0.8,0.2
1348,'2026/05/01 18:26:06:429',4,0.026563,0.95625,0,0.8,0.2
1349,'2026/05/01 18:26:06:444',4,0.026563,0.95625,0,0.8,0.2
1350,'2026/05/01 18:26:06:459',4,0.026563,0.95625,0,0.8,0.2
1351,'2026/05/01 18:26:06:483',4,0.026563,0.95625,0,0.8,0.2
1352,'2026/05/01 18:26:06:492',4,0.026563,0.95625,0,0.8,0.2
1353,'2026/05/01 18:26:06:525',4,0.026563,0.95625,0,0.8,0.2
1354,'2026/05/01 18:26:06:554',4,0.026563,0.95625,0,0.8,0.2
1355,'2026/05/01 18:26:06:585',4,0.026563,0.95625,0,0.8,0.2
1356,'2026/05/01 18:26:06:618',4,0.026563,0.95625,0,0.8,0.2
1357,'2026/05/01 18:26:06:648',4,0.026563,0.95625,0,0.8,0.2
1358,'2026/05/01 18:26:06:665',4,0.026563,0.95625,0,0.8,0.2
1359,'2026/05/01 18:26:06:693',4,0.026563,0.95625,0,0.8,0.2
1360,'2026/05/01 18:26:06:725',4,0.026563,0.95625,0,0.8,0.2
1361,'2026/05/01 18:26:06:740',4,0.026563,0.95625,0,0.8,0.2
1362,'2026/05/01 18:26:06:771',4,0.026563,0.95625,0,0.8,0.2
1363,'2026/05/01 18:26:06:802',4,0.026563,0.95625,0,0.8,0.2
1364,'2026/05/01 18:26:06:832',4,0.026563,0.95625,0,0.8,0.2
1365,'2026/05/01 18:26:06:864',4,0.026563,0.95625,0,0.8,0.2
1366,'2026/05/01 18:26:06:896',4,0.026563,0.95625,0,0.8,0.2
1367,'2026/05/01 18:26:06:911',4,0.026563,0.95625,0,0.8,0.2
1368,'2026/05/01 18:26:06:942',4,0.026563,0.95625,0,0.8,0.2
1369,'2026/05/01 18:26:06:972',4,0.026563,0.95625,0,0.8,0.2
1370,'2026/05/01 18:26:07:005',4,0.026563,0.95625,0,0.8,0.2
1371,'2026/05/01 18:26:07:040',4,0.026563,0.95625,0,0.8,0.2
1372,'2026/05/01 18:26:07:066',4,0.026563,0.95625,0,0.8,0.2
1373,'2026/05/01 18:26:07:082',4,0.026563,0.95625,0,0.8,0.2
1374,'2026/05/01 18:26:07:098',4,0.026563,0.95625,0,0.8,0.2
1375,'2026/05/01 18:26:07:128',4,0.026563,0.95625,0,0.8,0.2
1376,'2026/05/01 18:26:07:163',4,0.026563,0.95625,0,0.8,0.2
1377,'2026/05/01 18:26:07:174',4,0.026563,0.95625,0,0.8,0.2
1378,'2026/05/01 18:26:07:206',4,0.026563,0.95625,0,0.8,0.2
1379,'2026/05/01 18:26:07:221',4,0.026563,0.95625,0,0.8,0.2
1380,'2026/05/01 18:26:07:239',4,0.026563,0.95625,0,0.8,0.2
1381,'2026/05/01 18:26:07:255',4,0.026563,0.95625,0,0.8,0.2
1382,'2026/05/01 18:26:07:286',4,0.026563,0.95625,0,0.8,0.2
1383,'2026/05/01 18:26:07:319',4,0.026563,0.95625,0,0.8,0.2
1384,'2026/05/01 18:26:07:347',4,0.026563,0.95625,0,0.8,0.2
1385,'2026/05/01 18:26:07:364',4,0.026563,0.95625,0,0.8,0.2
1386,'2026/05/01 18:26:07:380',4,0.026563,0.95625,0,0.8,0.2
1387,'2026/05/01 18:26:07:412',4,0.026563,0.95625,0,0.8,0.2
1388,'2026/05/01 18:26:07:429',4,0.026563,0.95625,0,0.8,0.2
1389,'2026/05/01 18:26:07:444',4,0.026563,0.95625,0,0.8,0.2
1390,'2026/05/01 18:26:07:460',4,0.026563,0.95625,0,0.8,0.2
1391,'2026/05/01 18:26:07:476',4,0.026563,0.95625,0,0.8,0.2
1392,'2026/05/01 18:26:07:492',4,0.026563,0.95625,0,0.8,0.2
1393,'2026/05/01 18:26:07:509',4,0.026563,0.95625,0,0.8,0.2
1394,'2026/05/01 18:26:07:526',4,0.026563,0.95625,0,0.8,0.2
1395,'2026/05/01 18:26:07:541',4,0.026563,0.95625,0,0.8,0.2
1396,'2026/05/01 18:26:07:558',4,0.026563,0.95625,0,0.8,0.2
1397,'2026/05/01 18:26:07:574',4,0.026563,0.95625,0,0.8,0.2
1398,'2026/05/01 18:26:07:590',4,0.026563,0.95625,0,0.8,0.2
1399,'2026/05/01 18:26:07:606',4,0.026563,0.95625,0,0.8,0.2
1400,'2026/05/01 18:26:07:624',4,0.026563,0.95625,0,0.8,0.2
1401,'2026/05/01 18:26:07:640',4,0.026563,0.95625,0,0.8,0.2
1402,'2026/05/01 18:26:07:656',4,0.026563,0.95625,0,0.8,0.2
1403,'2026/05/01 18:26:07:672',4,0.026563,0.95625,0,0.8,0.2
1404,'2026/05/01 18:26:07:689',4,0.026563,0.95625,0,0.8,0.2
1405,'2026/05/01 18:26:07:705',4,0.026563,0.95625,0,0.8,0.2
1406,'2026/05/01 18:26:07:721',4,0.026563,0.95625,0,0.8,0.2
1407,'2026/05/01 18:26:07:738',4,0.026563,0.95625,0,0.8,0.2
1408,'2026/05/01 18:26:07:755',4,0.026563,0.95625,0,0.8,0.2
1409,'2026/05/01 18:26:07:772',4,0.026563,0.95625,0,0.8,0.2
1410,'2026/05/01 18:26:07:789',4,0.026563,0.95625,0,0.8,0.2
1411,'2026/05/01 18:26:07:805',4,0.026563,0.95625,0,0.8,0.2
1412,'2026/05/01 18:26:07:822',4,0.026563,0.95625,0,0.8,0.2
1413,'2026/05/01 18:26:07:838',4,0.026563,0.95625,0,0.8,0.2
1414,'2026/05/01 18:26:07:855',4,0.98125,0.11875,1,0.8,0.2
1415,'2026/05/01 18:26:07:871',4,0.967188,0.129167,0.205913,0.8,0.2
1416,'2026/05/01 18:26:07:887',4,0.957812,0.139583,0.156205,0.8,0.2
1417,'2026/05/01 18:26:07:904',4,0.948438,0.15,0.156205,0.8,0.2
1418,'2026/05/01 18:26:07:921',4,0.942187,0.160417,0.128062,0.8,0.2
1419,'2026/05/01 18:26:07:937',4,0.920313,0.191667,0.410366,0.8,0.2
1420,'2026/05/01 18:26:07:953',4,0.910937,0.20625,0.184391,0.8,0.2
1421,'2026/05/01 18:26:07:969',4,0.8875,0.23125,0.384187,0.8,0.2
1422,'2026/05/01 18:26:07:985',4,0.873438,0.24375,0.216333,0.8,0.2
1423,'2026/05/01 18:26:08:001',4,0.85625,0.254167,0.241661,0.8,0.2
1424,'2026/05/01 18:26:08:018',4,0.851563,0.25625,0.063246,0.8,0.2
1425,'2026/05/01 18:26:08:034',4,0.840625,0.25625,0.14,0.8,0.2
1426,'2026/05/01 18:26:08:050',4,0.834375,0.252083,0.089443,0.8,0.2
1427,'2026/05/01 18:26:08:066',4,0.821875,0.241667,0.18868,0.8,0.2
1428,'2026/05/01 18:26:08:082',4,0.81875,0.2375,0.056569,0.8,0.2
1429,'2026/05/01 18:26:08:099',4,0.8125,0.20625,0.310483,0.8,0.2
1430,'2026/05/01 18:26:08:115',4,0.815625,0.16875,0.362215,0.8,0.2
1431,'2026/05/01 18:26:08:132',4,0.821875,0.15625,0.144222,0.8,0.2
1432,'2026/05/01 18:26:08:147',4,0.8375,0.1375,0.269072,0.8,0.2
1433,'2026/05/01 18:26:08:164',4,0.846875,0.133333,0.126491,0.8,0.2
1434,'2026/05/01 18:26:08:180',4,0.882813,0.122917,0.470744,0.8,0.2
1435,'2026/05/01 18:26:08:196',4,0.904688,0.125,0.280713,0.8,0.2
1436,'2026/05/01 18:26:08:213',4,0.932813,0.141667,0.393954,0.8,0.2
1437,'2026/05/01 18:26:08:229',4,0.942187,0.152083,0.156205,0.8,0.2
1438,'2026/05/01 18:26:08:246',4,0.959375,0.191667,0.43909,0.8,0.2
1439,'2026/05/01 18:26:08:263',4,0.960938,0.225,0.320624,0.8,0.2
1440,'2026/05/01 18:26:08:280',4,0.948438,0.283333,0.582409,0.8,0.2
1441,'2026/05/01 18:26:08:296',4,0.921875,0.33125,0.572014,0.8,0.2
1442,'2026/05/01 18:26:08:312',4,0.909375,0.34375,0.2,0.8,0.2
1443,'2026/05/01 18:26:08:329',4,0.8625,0.36875,0.64622,0.8,0.2
1444,'2026/05/01 18:26:08:345',4,0.825,0.372917,0.481664,0.8,0.2
1445,'2026/05/01 18:26:08:361',4,0.784375,0.364583,0.526118,0.8,0.2
1446,'2026/05/01 18:26:08:378',4,0.773438,0.360417,0.145602,0.8,0.2
1447,'2026/05/01 18:26:08:395',4,0.746875,0.327083,0.466905,0.8,0.2
1448,'2026/05/01 18:26:08:411',4,0.73125,0.275,0.538516,0.8,0.2
1449,'2026/05/01 18:26:08:427',4,0.73125,0.258333,0.16,0.8,0.2
1450,'2026/05/01 18:26:08:443',4,0.734375,0.208333,0.481664,0.8,0.2
1451,'2026/05/01 18:26:08:459',4,0.740625,0.1875,0.215407,0.8,0.2
1452,'2026/05/01 18:26:08:475',4,0.753125,0.172917,0.212603,0.8,0.2
1453,'2026/05/01 18:26:08:491',4,0.759375,0.164583,0.113137,0.8,0.2
1454,'2026/05/01 18:26:08:508',4,0.795313,0.154167,0.470744,0.8,0.2
1455,'2026/05/01 18:26:08:525',4,0.825,0.147917,0.384708,0.8,0.2
1456,'2026/05/01 18:26:08:541',4,0.867188,0.154167,0.543323,0.8,0.2
1457,'2026/05/01 18:26:08:558',4,0.879687,0.164583,0.18868,0.8,0.2
1458,'2026/05/01 18:26:08:574',4,0.9,0.208333,0.493964,0.8,0.2
1459,'2026/05/01 18:26:08:590',4,0.907812,0.24375,0.354401,0.8,0.2
1460,'2026/05/01 18:26:08:606',4,0.909375,0.2875,0.420476,0.8,0.2
1461,'2026/05/01 18:26:08:622',4,0.909375,0.297917,0.1,0.8,0.2
1462,'2026/05/01 18:26:08:638',4,0.901563,0.320833,0.241661,0.8,0.2
1463,'2026/05/01 18:26:08:654',4,0.8875,0.3375,0.240832,0.8,0.2
1464,'2026/05/01 18:26:08:670',4,0.840625,0.366667,0.662118,0.8,0.2
1465,'2026/05/01 18:26:08:686',4,0.820313,0.372917,0.266833,0.8,0.2
1466,'2026/05/01 18:26:08:704',4,0.76875,0.377083,0.661211,0.8,0.2
1467,'2026/05/01 18:26:08:719',4,0.728125,0.352083,0.572713,0.8,0.2
1468,'2026/05/01 18:26:08:737',4,0.70625,0.322917,0.39598,0.8,0.2
1469,'2026/05/01 18:26:08:752',4,0.689062,0.26875,0.564624,0.8,0.2
1470,'2026/05/01 18:26:08:769',4,0.689062,0.25,0.18,0.8,0.2
1471,'2026/05/01 18:26:08:785',4,0.7,0.185417,0.63561,0.8,0.2
1472,'2026/05/01 18:26:08:801',4,0.721875,0.141667,0.504777,0.8,0.2
1473,'2026/05/01 18:26:08:818',4,0.760938,0.095833,0.666033,0.8,0.2
1474,'2026/05/01 18:26:08:834',4,0.775,0.083333,0.216333,0.8,0.2
1475,'2026/05/01 18:26:08:851',4,0.839063,0.058333,0.8544,0.8,0.2
1476,'2026/05/01 18:26:08:867',4,0.885938,0.05,0.60531,0.8,0.2
1477,'2026/05/01 18:26:08:883',4,0.940625,0.05,0.7,0.8,0.2
1478,'2026/05/01 18:26:08:899',4,0.954687,0.054167,0.184391,0.8,0.2
1479,'2026/05/01 18:26:08:917',4,0.985937,0.075,0.447214,0.8,0.2
1480,'2026/05/01 18:26:08:932',4,0.992188,0.0875,0.144222,0.8,0.2
1481,'2026/05/01 18:26:08:948',4,0.992188,0.0875,0,0.8,0.2
1482,'2026/05/01 18:26:08:966',4,0.992188,0.0875,0,0.8,0.2
1483,'2026/05/01 18:26:08:982',4,0.990625,0.210417,1,0.8,0.2
1484,'2026/05/01 18:26:08:999',4,0.95,0.270833,0.778974,0.8,0.2
1485,'2026/05/01 18:26:09:015',4,0.932813,0.291667,0.297321,0.8,0.2
1486,'2026/05/01 18:26:09:033',4,0.873438,0.335417,0.868332,0.8,0.2
1487,'2026/05/01 18:26:09:049',4,0.815625,0.347917,0.749667,0.8,0.2
1488,'2026/05/01 18:26:09:065',4,0.778125,0.341667,0.483735,0.8,0.2
1489,'2026/05/01 18:26:09:082',4,0.728125,0.3125,0.69857,0.8,0.2
1490,'2026/05/01 18:26:09:099',4,0.714063,0.297917,0.228035,0.8,0.2
1491,'2026/05/01 18:26:09:115',4,0.68125,0.25,0.622896,0.8,0.2
1492,'2026/05/01 18:26:09:131',4,0.676562,0.2375,0.134164,0.8,0.2
1493,'2026/05/01 18:26:09:147',4,0.671875,0.197917,0.384708,0.8,0.2
1494,'2026/05/01 18:26:09:164',4,0.676562,0.170833,0.266833,0.8,0.2
1495,'2026/05/01 18:26:09:181',4,0.701563,0.133333,0.481664,0.8,0.2
1496,'2026/05/01 18:26:09:197',4,0.729688,0.10625,0.444072,0.8,0.2
1497,'2026/05/01 18:26:09:213',4,0.7875,0.072917,0.806226,0.8,0.2
1498,'2026/05/01 18:26:09:230',4,0.834375,0.058333,0.616117,0.8,0.2
1499,'2026/05/01 18:26:09:247',4,0.882813,0.047917,0.628013,0.8,0.2
1500,'2026/05/01 18:26:09:263',4,0.929688,0.054167,0.602993,0.8,0.2
1501,'2026/05/01 18:26:09:281',4,0.942187,0.0625,0.178885,0.8,0.2
1502,'2026/05/01 18:26:09:297',4,0.967188,0.104167,0.51225,0.8,0.2
1503,'2026/05/01 18:26:09:313',4,0.975,0.158333,0.529528,0.8,0.2
1504,'2026/05/01 18:26:09:329',4,0.971875,0.183333,0.243311,0.8,0.2
1505,'2026/05/01 18:26:09:346',4,0.9625,0.216667,0.34176,0.8,0.2
1506,'2026/05/01 18:26:09:362',4,0.954687,0.225,0.128062,0.8,0.2
1507,'2026/05/01 18:26:09:381',4,0.923437,0.247917,0.456508,0.8,0.2
1508,'2026/05/01 18:26:09:395',4,0.875,0.25625,0.62514,0.8,0.2
1509,'2026/05/01 18:26:09:413',4,0.85625,0.252083,0.243311,0.8,0.2
1510,'2026/05/01 18:26:09:430',4,0.795313,0.222917,0.828734,0.8,0.2
1511,'2026/05/01 18:26:09:445',4,0.7625,0.189583,0.528015,0.8,0.2
1512,'2026/05/01 18:26:09:462',4,0.7375,0.139583,0.576888,0.8,0.2
1513,'2026/05/01 18:26:09:478',4,0.734375,0.116667,0.223607,0.8,0.2
1514,'2026/05/01 18:26:09:495',4,0.734375,0.104167,0.12,0.8,0.2
1515,'2026/05/01 18:26:09:512',4,0.734375,0.095833,0.08,0.8,0.2
1516,'2026/05/01 18:26:09:528',4,0.746875,0.083333,0.2,0.8,0.2
1517,'2026/05/01 18:26:09:545',4,0.75625,0.075,0.144222,0.8,0.2
1518,'2026/05/01 18:26:09:562',4,0.8,0.058333,0.582409,0.8,0.2
1519,'2026/05/01 18:26:09:579',4,0.85,0.058333,0.64,0.8,0.2
1520,'2026/05/01 18:26:09:595',4,0.878125,0.072917,0.386264,0.8,0.2
1521,'2026/05/01 18:26:09:612',4,0.90625,0.125,0.616117,0.8,0.2
1522,'2026/05/01 18:26:09:628',4,0.9125,0.145833,0.215407,0.8,0.2
1523,'2026/05/01 18:26:09:646',4,0.923437,0.21875,0.713863,0.8,0.2
1524,'2026/05/01 18:26:09:661',4,0.921875,0.291667,0.700286,0.8,0.2
1525,'2026/05/01 18:26:09:678',4,0.920313,0.3125,0.200998,0.8,0.2
1526,'2026/05/01 18:26:09:694',4,0.914063,0.345833,0.329848,0.8,0.2
1527,'2026/05/01 18:26:09:711',4,0.9125,0.352083,0.063246,0.8,0.2
1528,'2026/05/01 18:26:09:727',4,0.907812,0.354167,0.063246,0.8,0.2
1529,'2026/05/01 18:26:09:743',4,0.885938,0.347917,0.286356,0.8,0.2
1530,'2026/05/01 18:26:09:760',4,0.875,0.3375,0.172047,0.8,0.2
1531,'2026/05/01 18:26:09:777',4,0.834375,0.275,0.793977,0.8,0.2
1532,'2026/05/01 18:26:09:793',4,0.817187,0.227083,0.509902,0.8,0.2
1533,'2026/05/01 18:26:09:810',4,0.809375,0.166667,0.588558,0.8,0.2
1534,'2026/05/01 18:26:09:827',4,0.8125,0.135417,0.302655,0.8,0.2
1535,'2026/05/01 18:26:09:843',4,0.820313,0.110417,0.26,0.8,0.2
1536,'2026/05/01 18:26:09:860',4,0.84375,0.08125,0.410366,0.8,0.2
1537,'2026/05/01 18:26:09:875',4,0.85625,0.075,0.17088,0.8,0.2
1538,'2026/05/01 18:26:09:891',4,0.892187,0.054167,0.501597,0.8,0.2
1539,'2026/05/01 18:26:09:908',4,0.921875,0.047917,0.384708,0.8,0.2
1540,'2026/05/01 18:26:09:924',4,0.971875,0.054167,0.642806,0.8,0.2
1541,'2026/05/01 18:26:09:941',4,0.984375,0.0625,0.178885,0.8,0.2
1542,'2026/05/01 18:26:09:958',4,0.984375,0.0625,0,0.8,0.2
1543,'2026/05/01 18:26:09:975',4,0.984375,0.0625,0,0.8,0.2
1544,'2026/05/01 18:26:09:992',4,0.984375,0.0625,0,0.8,0.2
1545,'2026/05/01 18:26:10:008',4,0.978125,0.26875,1,0.8,0.2
1546,'2026/05/01 18:26:10:024',4,0.965625,0.285417,0.226274,0.8,0.2
1547,'2026/05/01 18:26:10:040',4,0.923437,0.329167,0.684105,0.8,0.2
1548,'2026/05/01 18:26:10:056',4,0.8875,0.352083,0.509902,0.8,0.2
1549,'2026/05/01 18:26:10:073',4,0.829687,0.35625,0.74108,0.8,0.2
1550,'2026/05/01 18:26:10:090',4,0.796875,0.339583,0.449444,0.8,0.2
1551,'2026/05/01 18:26:10:107',4,0.765625,0.30625,0.51225,0.8,0.2
1552,'2026/05/01 18:26:10:124',4,0.740625,0.25,0.627694,0.8,0.2
1553,'2026/05/01 18:26:10:140',4,0.7375,0.23125,0.184391,0.8,0.2
1554,'2026/05/01 18:26:10:159',4,0.740625,0.177083,0.521536,0.8,0.2
1555,'2026/05/01 18:26:10:173',4,0.76875,0.114583,0.699714,0.8,0.2
1556,'2026/05/01 18:26:10:190',4,0.796875,0.075,0.52345,0.8,0.2
1557,'2026/05/01 18:26:10:208',4,0.85,0.035417,0.778974,0.8,0.2
1558,'2026/05/01 18:26:10:224',4,0.867188,0.027083,0.234094,0.8,0.2
1559,'2026/05/01 18:26:10:242',4,0.907812,0.016667,0.529528,0.8,0.2
1560,'2026/05/01 18:26:10:256',4,0.942187,0.022917,0.444072,0.8,0.2
1561,'2026/05/01 18:26:10:273',4,0.960938,0.039583,0.288444,0.8,0.2
1562,'2026/05/01 18:26:10:289',4,0.971875,0.070833,0.331059,0.8,0.2
1563,'2026/05/01 18:26:10:305',4,0.978125,0.116667,0.447214,0.8,0.2
1564,'2026/05/01 18:26:10:322',4,0.971875,0.183333,0.644981,0.8,0.2
1565,'2026/05/01 18:26:10:338',4,0.96875,0.20625,0.223607,0.8,0.2
1566,'2026/05/01 18:26:10:355',4,0.946875,0.252083,0.521536,0.8,0.2
1567,'2026/05/01 18:26:10:372',4,0.93125,0.26875,0.256125,0.8,0.2
1568,'2026/05/01 18:26:10:389',4,0.90625,0.279167,0.335261,0.8,0.2
1569,'2026/05/01 18:26:10:405',4,0.865625,0.270833,0.526118,0.8,0.2
1570,'2026/05/01 18:26:10:422',4,0.85,0.2625,0.215407,0.8,0.2
1571,'2026/05/01 18:26:10:439',4,0.809375,0.225,0.632456,0.8,0.2
1572,'2026/05/01 18:26:10:455',4,0.7875,0.19375,0.410366,0.8,0.2
1573,'2026/05/01 18:26:10:471',4,0.771875,0.15,0.465188,0.8,0.2
1574,'2026/05/01 18:26:10:488',4,0.770312,0.129167,0.200998,0.8,0.2
1575,'2026/05/01 18:26:10:504',4,0.775,0.108333,0.208806,0.8,0.2
1576,'2026/05/01 18:26:10:521',4,0.790625,0.0875,0.282843,0.8,0.2
1577,'2026/05/01 18:26:10:538',4,0.8,0.079167,0.144222,0.8,0.2
1578,'2026/05/01 18:26:10:555',4,0.834375,0.058333,0.483322,0.8,0.2
1579,'2026/05/01 18:26:10:571',4,0.860937,0.05625,0.340588,0.8,0.2
1580,'2026/05/01 18:26:10:588',4,0.873438,0.060417,0.164924,0.8,0.2
1581,'2026/05/01 18:26:10:604',4,0.890625,0.09375,0.38833,0.8,0.2
1582,'2026/05/01 18:26:10:620',4,0.895312,0.114583,0.208806,0.8,0.2
1583,'2026/05/01 18:26:10:637',4,0.896875,0.191667,0.74027,0.8,0.2
1584,'2026/05/01 18:26:10:653',4,0.884375,0.2625,0.69857,0.8,0.2
1585,'2026/05/01 18:26:10:669',4,0.876562,0.279167,0.18868,0.8,0.2
1586,'2026/05/01 18:26:10:686',4,0.860937,0.30625,0.328024,0.8,0.2
1587,'2026/05/01 18:26:10:702',4,0.851563,0.314583,0.144222,0.8,0.2
1588,'2026/05/01 18:26:10:718',4,0.826563,0.31875,0.32249,0.8,0.2
1589,'2026/05/01 18:26:10:734',4,0.814062,0.314583,0.164924,0.8,0.2
1590,'2026/05/01 18:26:10:750',4,0.773438,0.285417,0.590593,0.8,0.2
1591,'2026/05/01 18:26:10:767',4,0.748438,0.245833,0.49679,0.8,0.2
1592,'2026/05/01 18:26:10:783',4,0.725,0.166667,0.817068,0.8,0.2
1593,'2026/05/01 18:26:10:799',4,0.720312,0.139583,0.266833,0.8,0.2
1594,'2026/05/01 18:26:10:816',4,0.723437,0.083333,0.541479,0.8,0.2
1595,'2026/05/01 18:26:10:832',4,0.732813,0.05625,0.286356,0.8,0.2
1596,'2026/05/01 18:26:10:849',4,0.753125,0.029167,0.367696,0.8,0.2
1597,'2026/05/01 18:26:10:865',4,0.7625,0.01875,0.156205,0.8,0.2
1598,'2026/05/01 18:26:10:882',4,0.801562,0.002083,0.524976,0.8,0.2
1599,'2026/05/01 18:26:10:899',4,0.801562,0.002083,0,0.8,0.2
1600,'2026/05/01 18:26:10:916',4,0.86875,0.008333,0.86209,0.8,0.2
1601,'2026/05/01 18:26:10:932',4,0.898438,0.045833,0.52345,0.8,0.2
1602,'2026/05/01 18:26:10:949',4,0.90625,0.066667,0.223607,0.8,0.2
1603,'2026/05/01 18:26:10:965',4,0.921875,0.1625,0.941488,0.8,0.2
1604,'2026/05/01 18:26:10:981',4,0.920313,0.220833,0.560357,0.8,0.2
1605,'2026/05/01 18:26:10:997',4,0.909375,0.291667,0.694262,0.8,0.2
1606,'2026/05/01 18:26:11:014',4,0.901563,0.308333,0.18868,0.8,0.2
1607,'2026/05/01 18:26:11:033',4,0.890625,0.329167,0.244131,0.8,0.2
1608,'2026/05/01 18:26:11:048',4,0.867188,0.339583,0.316228,0.8,0.2
1609,'2026/05/01 18:26:11:066',4,0.842188,0.3375,0.320624,0.8,0.2
1610,'2026/05/01 18:26:11:082',4,0.798437,0.2875,0.737564,0.8,0.2
1611,'2026/05/01 18:26:11:097',4,0.771875,0.24375,0.54037,0.8,0.2
1612,'2026/05/01 18:26:11:114',4,0.745313,0.170833,0.778203,0.8,0.2
1613,'2026/05/01 18:26:11:131',4,0.74375,0.15,0.200998,0.8,0.2
1614,'2026/05/01 18:26:11:147',4,0.751562,0.095833,0.529528,0.8,0.2
1615,'2026/05/01 18:26:11:164',4,0.767187,0.070833,0.31241,0.8,0.2
1616,'2026/05/01 18:26:11:180',4,0.796875,0.04375,0.460435,0.8,0.2
1617,'2026/05/01 18:26:11:197',4,0.810938,0.035417,0.196977,0.8,0.2
1618,'2026/05/01 18:26:11:215',4,0.854688,0.022917,0.572713,0.8,0.2
1619,'2026/05/01 18:26:11:230',4,0.890625,0.027083,0.461736,0.8,0.2
1620,'2026/05/01 18:26:11:248',4,0.910937,0.041667,0.295296,0.8,0.2
1621,'2026/05/01 18:26:11:265',4,0.929688,0.095833,0.572713,0.8,0.2
1622,'2026/05/01 18:26:11:281',4,0.934375,0.122917,0.266833,0.8,0.2
1623,'2026/05/01 18:26:11:297',4,0.93125,0.220833,0.940851,0.8,0.2
1624,'2026/05/01 18:26:11:313',4,0.920313,0.277083,0.557853,0.8,0.2
1625,'2026/05/01 18:26:11:329',4,0.903125,0.333333,0.583095,0.8,0.2
1626,'2026/05/01 18:26:11:346',4,0.895312,0.34375,0.141421,0.8,0.2
1627,'2026/05/01 18:26:11:363',4,0.86875,0.364583,0.394462,0.8,0.2
1628,'2026/05/01 18:26:11:378',4,0.842188,0.370833,0.345254,0.8,0.2
1629,'2026/05/01 18:26:11:395',4,0.815625,0.36875,0.340588,0.8,0.2
1630,'2026/05/01 18:26:11:411',4,0.767187,0.333333,0.707107,0.8,0.2
1631,'2026/05/01 18:26:11:427',4,0.746875,0.291667,0.477074,0.8,0.2
1632,'2026/05/01 18:26:11:444',4,0.735937,0.225,0.655134,0.8,0.2
1633,'2026/05/01 18:26:11:461',4,0.739062,0.20625,0.184391,0.8,0.2
1634,'2026/05/01 18:26:11:477',4,0.760938,0.158333,0.538516,0.8,0.2
1635,'2026/05/01 18:26:11:494',4,0.770312,0.14375,0.184391,0.8,0.2
1636,'2026/05/01 18:26:11:510',4,0.8125,0.11875,0.590931,0.8,0.2
1637,'2026/05/01 18:26:11:526',4,0.828125,0.110417,0.215407,0.8,0.2
1638,'2026/05/01 18:26:11:544',4,0.885938,0.097917,0.749667,0.8,0.2
1639,'2026/05/01 18:26:11:559',4,0.940625,0.11875,0.728011,0.8,0.2
1640,'2026/05/01 18:26:11:576',4,0.9625,0.15,0.410366,0.8,0.2
1641,'2026/05/01 18:26:11:593',4,0.971875,0.16875,0.216333,0.8,0.2
1642,'2026/05/01 18:26:11:609',4,0.976563,0.2375,0.662722,0.8,0.2
1643,'2026/05/01 18:26:11:625',4,0.973437,0.291667,0.521536,0.8,0.2
1644,'2026/05/01 18:26:11:642',4,0.964063,0.31875,0.286356,0.8,0.2
1645,'2026/05/01 18:26:11:658',4,0.95625,0.329167,0.141421,0.8,0.2
1646,'2026/05/01 18:26:11:674',4,0.940625,0.339583,0.223607,0.8,0.2
1647,'2026/05/01 18:26:11:693',4,0.907812,0.3375,0.420476,0.8,0.2
1648,'2026/05/01 18:26:11:708',4,0.865625,0.295833,0.672012,0.8,0.2
1649,'2026/05/01 18:26:11:724',4,0.848437,0.252083,0.474131,0.8,0.2
1650,'2026/05/01 18:26:11:740',4,0.842188,0.23125,0.215407,0.8,0.2
1651,'2026/05/01 18:26:11:756',4,0.842188,0.191667,0.38,0.8,0.2
1652,'2026/05/01 18:26:11:773',4,0.846875,0.179167,0.134164,0.8,0.2
1653,'2026/05/01 18:26:11:790',4,0.864062,0.15625,0.311127,0.8,0.2
1654,'2026/05/01 18:26:11:807',4,0.873438,0.15,0.134164,0.8,0.2
1655,'2026/05/01 18:26:11:825',4,0.910937,0.141667,0.486621,0.8,0.2
1656,'2026/05/01 18:26:11:840',4,0.951563,0.160417,0.550273,0.8,0.2
1657,'2026/05/01 18:26:11:858',4,0.970312,0.19375,0.4,0.8,0.2
1658,'2026/05/01 18:26:11:873',4,0.984375,0.258333,0.6456,0.8,0.2
1659,'2026/05/01 18:26:11:891',4,0.984375,0.279167,0.2,0.8,0.2
1660,'2026/05/01 18:26:11:907',4,0.98125,0.316667,0.362215,0.8,0.2
1661,'2026/05/01 18:26:11:924',4,0.98125,0.316667,0,0.8,0.2
1662,'2026/05/01 18:26:11:940',4,0.978125,0.31875,0.044721,0.8,0.2
1663,'2026/05/01 18:26:11:957',4,0.978125,0.31875,0,0.8,0.2
1664,'2026/05/01 18:26:11:974',4,0.953125,0.29375,0.4,0.8,0.2
1665,'2026/05/01 18:26:11:991',4,0.929688,0.2375,0.617738,0.8,0.2
1666,'2026/05/01 18:26:12:008',4,0.914063,0.14375,0.921954,0.8,0.2
1667,'2026/05/01 18:26:12:024',4,0.9125,0.108333,0.340588,0.8,0.2
1668,'2026/05/01 18:26:12:041',4,0.91875,0.08125,0.272029,0.8,0.2
1669,'2026/05/01 18:26:12:058',4,0.921875,0.075,0.072111,0.8,0.2
1670,'2026/05/01 18:26:12:075',4,0.934375,0.066667,0.178885,0.8,0.2
1671,'2026/05/01 18:26:12:090',4,0.953125,0.0625,0.243311,0.8,0.2
1672,'2026/05/01 18:26:12:107',4,0.959375,0.06875,0.1,0.8,0.2
1673,'2026/05/01 18:26:12:122',4,0.970312,0.104167,0.367696,0.8,0.2
1674,'2026/05/01 18:26:12:138',4,0.973437,0.15625,0.501597,0.8,0.2
1675,'2026/05/01 18:26:12:154',4,0.964063,0.23125,0.729931,0.8,0.2
1676,'2026/05/01 18:26:12:171',4,0.957812,0.245833,0.161245,0.8,0.2
1677,'2026/05/01 18:26:12:188',4,0.945313,0.275,0.32249,0.8,0.2
1678,'2026/05/01 18:26:12:204',4,0.934375,0.285417,0.172047,0.8,0.2
1679,'2026/05/01 18:26:12:220',4,0.90625,0.2875,0.360555,0.8,0.2
1680,'2026/05/01 18:26:12:237',4,0.895312,0.285417,0.141421,0.8,0.2
1681,'2026/05/01 18:26:12:253',4,0.864062,0.245833,0.551725,0.8,0.2
1682,'2026/05/01 18:26:12:269',4,0.846875,0.19375,0.54626,0.8,0.2
1683,'2026/05/01 18:26:12:286',4,0.845312,0.175,0.181108,0.8,0.2
1684,'2026/05/01 18:26:12:302',4,0.846875,0.139583,0.340588,0.8,0.2
1685,'2026/05/01 18:26:12:318',4,0.851563,0.127083,0.134164,0.8,0.2
1686,'2026/05/01 18:26:12:334',4,0.8625,0.114583,0.184391,0.8,0.2
1687,'2026/05/01 18:26:12:351',4,0.870313,0.110417,0.107703,0.8,0.2
1688,'2026/05/01 18:26:12:367',4,0.89375,0.108333,0.300666,0.8,0.2
1689,'2026/05/01 18:26:12:384',4,0.901563,0.108333,0.1,0.8,0.2
1690,'2026/05/01 18:26:12:399',4,0.926562,0.127083,0.367151,0.8,0.2
1691,'2026/05/01 18:26:12:416',4,0.934375,0.147917,0.223607,0.8,0.2
1692,'2026/05/01 18:26:12:433',4,0.939062,0.175,0.266833,0.8,0.2
1693,'2026/05/01 18:26:12:449',4,0.939062,0.202083,0.26,0.8,0.2
1694,'2026/05/01 18:26:12:465',4,0.9375,0.208333,0.063246,0.8,0.2
1695,'2026/05/01 18:26:12:481',4,0.929688,0.239583,0.316228,0.8,0.2
1696,'2026/05/01 18:26:12:497',4,0.925,0.258333,0.189737,0.8,0.2
1697,'2026/05/01 18:26:12:513',4,0.925,0.258333,0,0.8,0.2
1698,'2026/05/01 18:26:12:529',4,0.925,0.258333,0,0.8,0.2
1699,'2026/05/01 18:26:12:546',4,0.925,0.258333,0,0.8,0.2
1700,'2026/05/01 18:26:12:562',4,0.925,0.258333,0,0.8,0.2
1701,'2026/05/01 18:26:12:579',4,0.925,0.258333,0,0.8,0.2
1702,'2026/05/01 18:26:12:595',4,0.925,0.258333,0,0.8,0.2
1703,'2026/05/01 18:26:12:611',4,0.925,0.258333,0,0.8,0.2
1704,'2026/05/01 18:26:12:627',4,0.925,0.258333,0,0.8,0.2
1705,'2026/05/01 18:26:12:644',4,0.925,0.258333,0,0.8,0.2
1706,'2026/05/01 18:26:12:660',4,0.925,0.258333,0,0.8,0.2
1707,'2026/05/01 18:26:12:677',4,0.925,0.258333,0,0.8,0.2
1708,'2026/05/01 18:26:12:693',4,0.925,0.258333,0,0.8,0.2
1709,'2026/05/01 18:26:12:710',4,0.925,0.258333,0,0.8,0.2
1710,'2026/05/01 18:26:12:726',4,0.925,0.258333,0,0.8,0.2
1711,'2026/05/01 18:26:12:744',4,0.925,0.258333,0,0.8,0.2
1712,'2026/05/01 18:26:12:761',4,0.925,0.258333,0,0.8,0.2
1713,'2026/05/01 18:26:12:775',4,0.9375,0.110417,1,0.8,0.2
1714,'2026/05/01 18:26:12:792',4,0.9375,0.110417,0,0.8,0.2
1715,'2026/05/01 18:26:12:809',4,0.9375,0.110417,0,0.8,0.2
1716,'2026/05/01 18:26:12:826',4,0.9375,0.110417,0,0.8,0.2
1717,'2026/05/01 18:26:12:842',4,0.9375,0.110417,0,0.8,0.2
1718,'2026/05/01 18:26:12:859',4,0.9375,0.110417,0,0.8,0.2
1719,'2026/05/01 18:26:12:875',4,0.9375,0.110417,0,0.8,0.2
1720,'2026/05/01 18:26:12:892',4,0.9375,0.110417,0,0.8,0.2
1721,'2026/05/01 18:26:12:909',4,0.9375,0.110417,0,0.8,0.2
1722,'2026/05/01 18:26:12:925',4,0.9375,0.110417,0,0.8,0.2
1723,'2026/05/01 18:26:12:942',4,0.9375,0.110417,0,0.8,0.2
1724,'2026/05/01 18:26:12:959',4,0.042188,0.00625,1,0.8,0.2
1725,'2026/05/01 18:26:12:975',4,0.042188,0.00625,0,0.8,0.2
1726,'2026/05/01 18:26:12:992',4,0.042188,0.00625,0,0.8,0.2
1727,'2026/05/01 18:26:13:009',4,0.042188,0.00625,0,0.8,0.2
1728,'2026/05/01 18:26:13:025',4,0.042188,0.00625,0,0.8,0.2
1729,'2026/05/01 18:26:13:042',4,0.042188,0.00625,0,0.8,0.2
1730,'2026/05/01 18:26:13:058',4,0.042188,0.00625,0,0.8,0.2
1731,'2026/05/01 18:26:13:075',4,0.042188,0.00625,0,0.8,0.2
1732,'2026/05/01 18:26:13:091',4,0.042188,0.00625,0,0.8,0.2
1733,'2026/05/01 18:26:13:109',4,0.042188,0.00625,0,0.8,0.2
1734,'2026/05/01 18:26:13:124',4,0.042188,0.00625,0,0.8,0.2
1735,'2026/05/01 18:26:13:140',4,0.042188,0.00625,0,0.8,0.2
1736,'2026/05/01 18:26:13:157',4,0.042188,0.00625,0,0.8,0.2
1737,'2026/05/01 18:26:13:173',4,0.042188,0.00625,0,0.8,0.2
1738,'2026/05/01 18:26:13:190',4,0.042188,0.00625,0,0.8,0.2
1739,'2026/05/01 18:26:13:207',4,0.042188,0.00625,0,0.8,0.2
1740,'2026/05/01 18:26:13:223',4,0.042188,0.00625,0,0.8,0.2
1741,'2026/05/01 18:26:13:240',4,0.042188,0.00625,0,0.8,0.2
1742,'2026/05/01 18:26:13:257',4,0.042188,0.00625,0,0.8,0.2
1743,'2026/05/01 18:26:13:275',4,0.042188,0.00625,0,0.8,0.2
1744,'2026/05/01 18:26:13:292',4,0.042188,0.00625,0,0.8,0.2
1745,'2026/05/01 18:26:13:309',4,0.042188,0.00625,0,0.8,0.2
1746,'2026/05/01 18:26:13:325',4,0.042188,0.00625,0,0.8,0.2
1747,'2026/05/01 18:26:13:342',4,0.042188,0.00625,0,0.8,0.2
1748,'2026/05/01 18:26:13:358',4,0.042188,0.00625,0,0.8,0.2
1749,'2026/05/01 18:26:13:375',4,0.042188,0.00625,0,0.8,0.2
1750,'2026/05/01 18:26:13:391',4,0.042188,0.00625,0,0.8,0.2
1751,'2026/05/01 18:26:13:407',4,0.042188,0.00625,0,0.8,0.2
1752,'2026/05/01 18:26:13:423',4,0.042188,0.00625,0,0.8,0.2
1753,'2026/05/01 18:26:13:440',4,0.042188,0.00625,0,0.8,0.2
1754,'2026/05/01 18:26:13:456',4,0.042188,0.00625,0,0.8,0.2
1755,'2026/05/01 18:26:13:473',4,0.042188,0.00625,0,0.8,0.2
1756,'2026/05/01 18:26:13:490',4,0.042188,0.00625,0,0.8,0.2
1757,'2026/05/01 18:26:13:506',4,0.042188,0.00625,0,0.8,0.2
1758,'2026/05/01 18:26:13:523',4,0.042188,0.00625,0,0.8,0.2
1759,'2026/05/01 18:26:13:540',4,0.042188,0.00625,0,0.8,0.2
1760,'2026/05/01 18:26:13:556',4,0.042188,0.00625,0,0.8,0.2
1761,'2026/05/01 18:26:13:573',4,0.042188,0.00625,0,0.8,0.2
1762,'2026/05/01 18:26:13:590',4,0.042188,0.00625,0,0.8,0.2
1763,'2026/05/01 18:26:13:606',4,0.042188,0.00625,0,0.8,0.2
1764,'2026/05/01 18:26:13:622',4,0.042188,0.00625,0,0.8,0.2
1765,'2026/05/01 18:26:13:639',4,0.042188,0.00625,0,0.8,0.2
1766,'2026/05/01 18:26:13:655',4,0.042188,0.00625,0,0.8,0.2
1767,'2026/05/01 18:26:13:671',4,0.042188,0.00625,0,0.8,0.2
1768,'2026/05/01 18:26:13:688',4,0.042188,0.00625,0,0.8,0.2
1769,'2026/05/01 18:26:13:719',4,0.042188,0.00625,0,0.8,0.2
1770,'2026/05/01 18:26:13:749',4,0.042188,0.00625,0,0.8,0.2
1771,'2026/05/01 18:26:13:779',4,0.042188,0.00625,0,0.8,0.2
1772,'2026/05/01 18:26:13:810',4,0.042188,0.00625,0,0.8,0.2
1773,'2026/05/01 18:26:13:841',4,0.042188,0.00625,0,0.8,0.2
1774,'2026/05/01 18:26:13:872',4,0.042188,0.00625,0,0.8,0.2
1775,'2026/05/01 18:26:13:905',4,0.042188,0.00625,0,0.8,0.2
